*SPEF "ieee 1481-1999"
*DESIGN "user_analog_project_wrapper"
*DATE "11:11:11 Fri 11 11, 1111"
*VENDOR "OpenRCX"
*PROGRAM "Parallel Extraction"
*VERSION "1.0"
*DESIGN_FLOW "NAME_SCOPE LOCAL" "PIN_CAP NONE"
*DIVIDER /
*DELIMITER :
*BUS_DELIMITER []
*T_UNIT 1 NS
*C_UNIT 1 PF
*R_UNIT 1 OHM
*L_UNIT 1 HENRY

*NAME_MAP
*1 gpio_analog[0]
*2 gpio_analog[10]
*3 gpio_analog[11]
*4 gpio_analog[12]
*5 gpio_analog[13]
*6 gpio_analog[14]
*7 gpio_analog[15]
*8 gpio_analog[16]
*9 gpio_analog[17]
*10 gpio_analog[1]
*11 gpio_analog[2]
*12 gpio_analog[3]
*13 gpio_analog[4]
*14 gpio_analog[5]
*15 gpio_analog[6]
*16 gpio_analog[7]
*17 gpio_analog[8]
*18 gpio_analog[9]
*19 gpio_noesd[0]
*20 gpio_noesd[10]
*21 gpio_noesd[11]
*22 gpio_noesd[12]
*23 gpio_noesd[13]
*24 gpio_noesd[14]
*25 gpio_noesd[15]
*26 gpio_noesd[16]
*27 gpio_noesd[17]
*28 gpio_noesd[1]
*29 gpio_noesd[2]
*30 gpio_noesd[3]
*31 gpio_noesd[4]
*32 gpio_noesd[5]
*33 gpio_noesd[6]
*34 gpio_noesd[7]
*35 gpio_noesd[8]
*36 gpio_noesd[9]
*37 io_analog[0]
*38 io_analog[10]
*39 io_analog[1]
*40 io_analog[2]
*41 io_analog[3]
*42 io_analog[4]
*43 io_analog[5]
*44 io_analog[6]
*45 io_analog[7]
*46 io_analog[8]
*47 io_analog[9]
*48 io_clamp_high[0]
*49 io_clamp_high[1]
*50 io_clamp_high[2]
*51 io_clamp_low[0]
*52 io_clamp_low[1]
*53 io_clamp_low[2]
*54 io_in[0]
*55 io_in[10]
*56 io_in[11]
*57 io_in[12]
*58 io_in[13]
*59 io_in[14]
*60 io_in[15]
*61 io_in[16]
*62 io_in[17]
*63 io_in[18]
*64 io_in[19]
*65 io_in[1]
*66 io_in[20]
*67 io_in[21]
*68 io_in[22]
*69 io_in[23]
*70 io_in[24]
*71 io_in[25]
*72 io_in[26]
*73 io_in[2]
*74 io_in[3]
*75 io_in[4]
*76 io_in[5]
*77 io_in[6]
*78 io_in[7]
*79 io_in[8]
*80 io_in[9]
*81 io_in_3v3[0]
*82 io_in_3v3[10]
*83 io_in_3v3[11]
*84 io_in_3v3[12]
*85 io_in_3v3[13]
*86 io_in_3v3[14]
*87 io_in_3v3[15]
*88 io_in_3v3[16]
*89 io_in_3v3[17]
*90 io_in_3v3[18]
*91 io_in_3v3[19]
*92 io_in_3v3[1]
*93 io_in_3v3[20]
*94 io_in_3v3[21]
*95 io_in_3v3[22]
*96 io_in_3v3[23]
*97 io_in_3v3[24]
*98 io_in_3v3[25]
*99 io_in_3v3[26]
*100 io_in_3v3[2]
*101 io_in_3v3[3]
*102 io_in_3v3[4]
*103 io_in_3v3[5]
*104 io_in_3v3[6]
*105 io_in_3v3[7]
*106 io_in_3v3[8]
*107 io_in_3v3[9]
*108 io_oeb[0]
*109 io_oeb[10]
*110 io_oeb[11]
*111 io_oeb[12]
*112 io_oeb[13]
*113 io_oeb[14]
*114 io_oeb[15]
*115 io_oeb[16]
*116 io_oeb[17]
*117 io_oeb[18]
*118 io_oeb[19]
*119 io_oeb[1]
*120 io_oeb[20]
*121 io_oeb[21]
*122 io_oeb[22]
*123 io_oeb[23]
*124 io_oeb[24]
*125 io_oeb[25]
*126 io_oeb[26]
*127 io_oeb[2]
*128 io_oeb[3]
*129 io_oeb[4]
*130 io_oeb[5]
*131 io_oeb[6]
*132 io_oeb[7]
*133 io_oeb[8]
*134 io_oeb[9]
*135 io_out[0]
*136 io_out[10]
*137 io_out[11]
*138 io_out[12]
*139 io_out[13]
*140 io_out[14]
*141 io_out[15]
*142 io_out[16]
*143 io_out[17]
*144 io_out[18]
*145 io_out[19]
*146 io_out[1]
*147 io_out[20]
*148 io_out[21]
*149 io_out[22]
*150 io_out[23]
*151 io_out[24]
*152 io_out[25]
*153 io_out[26]
*154 io_out[2]
*155 io_out[3]
*156 io_out[4]
*157 io_out[5]
*158 io_out[6]
*159 io_out[7]
*160 io_out[8]
*161 io_out[9]
*162 la_data_in[0]
*163 la_data_in[100]
*164 la_data_in[101]
*165 la_data_in[102]
*166 la_data_in[103]
*167 la_data_in[104]
*168 la_data_in[105]
*169 la_data_in[106]
*170 la_data_in[107]
*171 la_data_in[108]
*172 la_data_in[109]
*173 la_data_in[10]
*174 la_data_in[110]
*175 la_data_in[111]
*176 la_data_in[112]
*177 la_data_in[113]
*178 la_data_in[114]
*179 la_data_in[115]
*180 la_data_in[116]
*181 la_data_in[117]
*182 la_data_in[118]
*183 la_data_in[119]
*184 la_data_in[11]
*185 la_data_in[120]
*186 la_data_in[121]
*187 la_data_in[122]
*188 la_data_in[123]
*189 la_data_in[124]
*190 la_data_in[125]
*191 la_data_in[126]
*192 la_data_in[127]
*193 la_data_in[12]
*194 la_data_in[13]
*195 la_data_in[14]
*196 la_data_in[15]
*197 la_data_in[16]
*198 la_data_in[17]
*199 la_data_in[18]
*200 la_data_in[19]
*201 la_data_in[1]
*202 la_data_in[20]
*203 la_data_in[21]
*204 la_data_in[22]
*205 la_data_in[23]
*206 la_data_in[24]
*207 la_data_in[25]
*208 la_data_in[26]
*209 la_data_in[27]
*210 la_data_in[28]
*211 la_data_in[29]
*212 la_data_in[2]
*213 la_data_in[30]
*214 la_data_in[31]
*215 la_data_in[32]
*216 la_data_in[33]
*217 la_data_in[34]
*218 la_data_in[35]
*219 la_data_in[36]
*220 la_data_in[37]
*221 la_data_in[38]
*222 la_data_in[39]
*223 la_data_in[3]
*224 la_data_in[40]
*225 la_data_in[41]
*226 la_data_in[42]
*227 la_data_in[43]
*228 la_data_in[44]
*229 la_data_in[45]
*230 la_data_in[46]
*231 la_data_in[47]
*232 la_data_in[48]
*233 la_data_in[49]
*234 la_data_in[4]
*235 la_data_in[50]
*236 la_data_in[51]
*237 la_data_in[52]
*238 la_data_in[53]
*239 la_data_in[54]
*240 la_data_in[55]
*241 la_data_in[56]
*242 la_data_in[57]
*243 la_data_in[58]
*244 la_data_in[59]
*245 la_data_in[5]
*246 la_data_in[60]
*247 la_data_in[61]
*248 la_data_in[62]
*249 la_data_in[63]
*250 la_data_in[64]
*251 la_data_in[65]
*252 la_data_in[66]
*253 la_data_in[67]
*254 la_data_in[68]
*255 la_data_in[69]
*256 la_data_in[6]
*257 la_data_in[70]
*258 la_data_in[71]
*259 la_data_in[72]
*260 la_data_in[73]
*261 la_data_in[74]
*262 la_data_in[75]
*263 la_data_in[76]
*264 la_data_in[77]
*265 la_data_in[78]
*266 la_data_in[79]
*267 la_data_in[7]
*268 la_data_in[80]
*269 la_data_in[81]
*270 la_data_in[82]
*271 la_data_in[83]
*272 la_data_in[84]
*273 la_data_in[85]
*274 la_data_in[86]
*275 la_data_in[87]
*276 la_data_in[88]
*277 la_data_in[89]
*278 la_data_in[8]
*279 la_data_in[90]
*280 la_data_in[91]
*281 la_data_in[92]
*282 la_data_in[93]
*283 la_data_in[94]
*284 la_data_in[95]
*285 la_data_in[96]
*286 la_data_in[97]
*287 la_data_in[98]
*288 la_data_in[99]
*289 la_data_in[9]
*290 la_data_out[0]
*291 la_data_out[100]
*292 la_data_out[101]
*293 la_data_out[102]
*294 la_data_out[103]
*295 la_data_out[104]
*296 la_data_out[105]
*297 la_data_out[106]
*298 la_data_out[107]
*299 la_data_out[108]
*300 la_data_out[109]
*301 la_data_out[10]
*302 la_data_out[110]
*303 la_data_out[111]
*304 la_data_out[112]
*305 la_data_out[113]
*306 la_data_out[114]
*307 la_data_out[115]
*308 la_data_out[116]
*309 la_data_out[117]
*310 la_data_out[118]
*311 la_data_out[119]
*312 la_data_out[11]
*313 la_data_out[120]
*314 la_data_out[121]
*315 la_data_out[122]
*316 la_data_out[123]
*317 la_data_out[124]
*318 la_data_out[125]
*319 la_data_out[126]
*320 la_data_out[127]
*321 la_data_out[12]
*322 la_data_out[13]
*323 la_data_out[14]
*324 la_data_out[15]
*325 la_data_out[16]
*326 la_data_out[17]
*327 la_data_out[18]
*328 la_data_out[19]
*329 la_data_out[1]
*330 la_data_out[20]
*331 la_data_out[21]
*332 la_data_out[22]
*333 la_data_out[23]
*334 la_data_out[24]
*335 la_data_out[25]
*336 la_data_out[26]
*337 la_data_out[27]
*338 la_data_out[28]
*339 la_data_out[29]
*340 la_data_out[2]
*341 la_data_out[30]
*342 la_data_out[31]
*343 la_data_out[32]
*344 la_data_out[33]
*345 la_data_out[34]
*346 la_data_out[35]
*347 la_data_out[36]
*348 la_data_out[37]
*349 la_data_out[38]
*350 la_data_out[39]
*351 la_data_out[3]
*352 la_data_out[40]
*353 la_data_out[41]
*354 la_data_out[42]
*355 la_data_out[43]
*356 la_data_out[44]
*357 la_data_out[45]
*358 la_data_out[46]
*359 la_data_out[47]
*360 la_data_out[48]
*361 la_data_out[49]
*362 la_data_out[4]
*363 la_data_out[50]
*364 la_data_out[51]
*365 la_data_out[52]
*366 la_data_out[53]
*367 la_data_out[54]
*368 la_data_out[55]
*369 la_data_out[56]
*370 la_data_out[57]
*371 la_data_out[58]
*372 la_data_out[59]
*373 la_data_out[5]
*374 la_data_out[60]
*375 la_data_out[61]
*376 la_data_out[62]
*377 la_data_out[63]
*378 la_data_out[64]
*379 la_data_out[65]
*380 la_data_out[66]
*381 la_data_out[67]
*382 la_data_out[68]
*383 la_data_out[69]
*384 la_data_out[6]
*385 la_data_out[70]
*386 la_data_out[71]
*387 la_data_out[72]
*388 la_data_out[73]
*389 la_data_out[74]
*390 la_data_out[75]
*391 la_data_out[76]
*392 la_data_out[77]
*393 la_data_out[78]
*394 la_data_out[79]
*395 la_data_out[7]
*396 la_data_out[80]
*397 la_data_out[81]
*398 la_data_out[82]
*399 la_data_out[83]
*400 la_data_out[84]
*401 la_data_out[85]
*402 la_data_out[86]
*403 la_data_out[87]
*404 la_data_out[88]
*405 la_data_out[89]
*406 la_data_out[8]
*407 la_data_out[90]
*408 la_data_out[91]
*409 la_data_out[92]
*410 la_data_out[93]
*411 la_data_out[94]
*412 la_data_out[95]
*413 la_data_out[96]
*414 la_data_out[97]
*415 la_data_out[98]
*416 la_data_out[99]
*417 la_data_out[9]
*418 la_oenb[0]
*419 la_oenb[100]
*420 la_oenb[101]
*421 la_oenb[102]
*422 la_oenb[103]
*423 la_oenb[104]
*424 la_oenb[105]
*425 la_oenb[106]
*426 la_oenb[107]
*427 la_oenb[108]
*428 la_oenb[109]
*429 la_oenb[10]
*430 la_oenb[110]
*431 la_oenb[111]
*432 la_oenb[112]
*433 la_oenb[113]
*434 la_oenb[114]
*435 la_oenb[115]
*436 la_oenb[116]
*437 la_oenb[117]
*438 la_oenb[118]
*439 la_oenb[119]
*440 la_oenb[11]
*441 la_oenb[120]
*442 la_oenb[121]
*443 la_oenb[122]
*444 la_oenb[123]
*445 la_oenb[124]
*446 la_oenb[125]
*447 la_oenb[126]
*448 la_oenb[127]
*449 la_oenb[12]
*450 la_oenb[13]
*451 la_oenb[14]
*452 la_oenb[15]
*453 la_oenb[16]
*454 la_oenb[17]
*455 la_oenb[18]
*456 la_oenb[19]
*457 la_oenb[1]
*458 la_oenb[20]
*459 la_oenb[21]
*460 la_oenb[22]
*461 la_oenb[23]
*462 la_oenb[24]
*463 la_oenb[25]
*464 la_oenb[26]
*465 la_oenb[27]
*466 la_oenb[28]
*467 la_oenb[29]
*468 la_oenb[2]
*469 la_oenb[30]
*470 la_oenb[31]
*471 la_oenb[32]
*472 la_oenb[33]
*473 la_oenb[34]
*474 la_oenb[35]
*475 la_oenb[36]
*476 la_oenb[37]
*477 la_oenb[38]
*478 la_oenb[39]
*479 la_oenb[3]
*480 la_oenb[40]
*481 la_oenb[41]
*482 la_oenb[42]
*483 la_oenb[43]
*484 la_oenb[44]
*485 la_oenb[45]
*486 la_oenb[46]
*487 la_oenb[47]
*488 la_oenb[48]
*489 la_oenb[49]
*490 la_oenb[4]
*491 la_oenb[50]
*492 la_oenb[51]
*493 la_oenb[52]
*494 la_oenb[53]
*495 la_oenb[54]
*496 la_oenb[55]
*497 la_oenb[56]
*498 la_oenb[57]
*499 la_oenb[58]
*500 la_oenb[59]
*501 la_oenb[5]
*502 la_oenb[60]
*503 la_oenb[61]
*504 la_oenb[62]
*505 la_oenb[63]
*506 la_oenb[64]
*507 la_oenb[65]
*508 la_oenb[66]
*509 la_oenb[67]
*510 la_oenb[68]
*511 la_oenb[69]
*512 la_oenb[6]
*513 la_oenb[70]
*514 la_oenb[71]
*515 la_oenb[72]
*516 la_oenb[73]
*517 la_oenb[74]
*518 la_oenb[75]
*519 la_oenb[76]
*520 la_oenb[77]
*521 la_oenb[78]
*522 la_oenb[79]
*523 la_oenb[7]
*524 la_oenb[80]
*525 la_oenb[81]
*526 la_oenb[82]
*527 la_oenb[83]
*528 la_oenb[84]
*529 la_oenb[85]
*530 la_oenb[86]
*531 la_oenb[87]
*532 la_oenb[88]
*533 la_oenb[89]
*534 la_oenb[8]
*535 la_oenb[90]
*536 la_oenb[91]
*537 la_oenb[92]
*538 la_oenb[93]
*539 la_oenb[94]
*540 la_oenb[95]
*541 la_oenb[96]
*542 la_oenb[97]
*543 la_oenb[98]
*544 la_oenb[99]
*545 la_oenb[9]
*546 user_clock2
*547 user_irq[0]
*548 user_irq[1]
*549 user_irq[2]
*558 wb_clk_i
*559 wb_rst_i
*560 wbs_ack_o
*561 wbs_adr_i[0]
*562 wbs_adr_i[10]
*563 wbs_adr_i[11]
*564 wbs_adr_i[12]
*565 wbs_adr_i[13]
*566 wbs_adr_i[14]
*567 wbs_adr_i[15]
*568 wbs_adr_i[16]
*569 wbs_adr_i[17]
*570 wbs_adr_i[18]
*571 wbs_adr_i[19]
*572 wbs_adr_i[1]
*573 wbs_adr_i[20]
*574 wbs_adr_i[21]
*575 wbs_adr_i[22]
*576 wbs_adr_i[23]
*577 wbs_adr_i[24]
*578 wbs_adr_i[25]
*579 wbs_adr_i[26]
*580 wbs_adr_i[27]
*581 wbs_adr_i[28]
*582 wbs_adr_i[29]
*583 wbs_adr_i[2]
*584 wbs_adr_i[30]
*585 wbs_adr_i[31]
*586 wbs_adr_i[3]
*587 wbs_adr_i[4]
*588 wbs_adr_i[5]
*589 wbs_adr_i[6]
*590 wbs_adr_i[7]
*591 wbs_adr_i[8]
*592 wbs_adr_i[9]
*593 wbs_cyc_i
*594 wbs_dat_i[0]
*595 wbs_dat_i[10]
*596 wbs_dat_i[11]
*597 wbs_dat_i[12]
*598 wbs_dat_i[13]
*599 wbs_dat_i[14]
*600 wbs_dat_i[15]
*601 wbs_dat_i[16]
*602 wbs_dat_i[17]
*603 wbs_dat_i[18]
*604 wbs_dat_i[19]
*605 wbs_dat_i[1]
*606 wbs_dat_i[20]
*607 wbs_dat_i[21]
*608 wbs_dat_i[22]
*609 wbs_dat_i[23]
*610 wbs_dat_i[24]
*611 wbs_dat_i[25]
*612 wbs_dat_i[26]
*613 wbs_dat_i[27]
*614 wbs_dat_i[28]
*615 wbs_dat_i[29]
*616 wbs_dat_i[2]
*617 wbs_dat_i[30]
*618 wbs_dat_i[31]
*619 wbs_dat_i[3]
*620 wbs_dat_i[4]
*621 wbs_dat_i[5]
*622 wbs_dat_i[6]
*623 wbs_dat_i[7]
*624 wbs_dat_i[8]
*625 wbs_dat_i[9]
*626 wbs_dat_o[0]
*627 wbs_dat_o[10]
*628 wbs_dat_o[11]
*629 wbs_dat_o[12]
*630 wbs_dat_o[13]
*631 wbs_dat_o[14]
*632 wbs_dat_o[15]
*633 wbs_dat_o[16]
*634 wbs_dat_o[17]
*635 wbs_dat_o[18]
*636 wbs_dat_o[19]
*637 wbs_dat_o[1]
*638 wbs_dat_o[20]
*639 wbs_dat_o[21]
*640 wbs_dat_o[22]
*641 wbs_dat_o[23]
*642 wbs_dat_o[24]
*643 wbs_dat_o[25]
*644 wbs_dat_o[26]
*645 wbs_dat_o[27]
*646 wbs_dat_o[28]
*647 wbs_dat_o[29]
*648 wbs_dat_o[2]
*649 wbs_dat_o[30]
*650 wbs_dat_o[31]
*651 wbs_dat_o[3]
*652 wbs_dat_o[4]
*653 wbs_dat_o[5]
*654 wbs_dat_o[6]
*655 wbs_dat_o[7]
*656 wbs_dat_o[8]
*657 wbs_dat_o[9]
*658 wbs_sel_i[0]
*659 wbs_sel_i[1]
*660 wbs_sel_i[2]
*661 wbs_sel_i[3]
*662 wbs_stb_i
*663 wbs_we_i
*664 signal_generator

*PORTS
gpio_analog[0] I
gpio_analog[10] I
gpio_analog[11] I
gpio_analog[12] I
gpio_analog[13] I
gpio_analog[14] I
gpio_analog[15] I
gpio_analog[16] I
gpio_analog[17] I
gpio_analog[1] I
gpio_analog[2] I
gpio_analog[3] I
gpio_analog[4] I
gpio_analog[5] I
gpio_analog[6] I
gpio_analog[7] I
gpio_analog[8] I
gpio_analog[9] I
gpio_noesd[0] I
gpio_noesd[10] I
gpio_noesd[11] I
gpio_noesd[12] I
gpio_noesd[13] I
gpio_noesd[14] I
gpio_noesd[15] I
gpio_noesd[16] I
gpio_noesd[17] I
gpio_noesd[1] I
gpio_noesd[2] I
gpio_noesd[3] I
gpio_noesd[4] I
gpio_noesd[5] I
gpio_noesd[6] I
gpio_noesd[7] I
gpio_noesd[8] I
gpio_noesd[9] I
io_analog[0] I
io_analog[10] I
io_analog[1] I
io_analog[2] I
io_analog[3] I
io_analog[4] I
io_analog[5] I
io_analog[6] I
io_analog[7] I
io_analog[8] I
io_analog[9] I
io_clamp_high[0] I
io_clamp_high[1] I
io_clamp_high[2] I
io_clamp_low[0] I
io_clamp_low[1] I
io_clamp_low[2] I
io_in[0] I
io_in[10] I
io_in[11] I
io_in[12] I
io_in[13] I
io_in[14] I
io_in[15] I
io_in[16] I
io_in[17] I
io_in[18] I
io_in[19] I
io_in[1] I
io_in[20] I
io_in[21] I
io_in[22] I
io_in[23] I
io_in[24] I
io_in[25] I
io_in[26] I
io_in[2] I
io_in[3] I
io_in[4] I
io_in[5] I
io_in[6] I
io_in[7] I
io_in[8] I
io_in[9] I
io_in_3v3[0] I
io_in_3v3[10] I
io_in_3v3[11] I
io_in_3v3[12] I
io_in_3v3[13] I
io_in_3v3[14] I
io_in_3v3[15] I
io_in_3v3[16] I
io_in_3v3[17] I
io_in_3v3[18] I
io_in_3v3[19] I
io_in_3v3[1] I
io_in_3v3[20] I
io_in_3v3[21] I
io_in_3v3[22] I
io_in_3v3[23] I
io_in_3v3[24] I
io_in_3v3[25] I
io_in_3v3[26] I
io_in_3v3[2] I
io_in_3v3[3] I
io_in_3v3[4] I
io_in_3v3[5] I
io_in_3v3[6] I
io_in_3v3[7] I
io_in_3v3[8] I
io_in_3v3[9] I
io_oeb[0] O
io_oeb[10] O
io_oeb[11] O
io_oeb[12] O
io_oeb[13] O
io_oeb[14] O
io_oeb[15] O
io_oeb[16] O
io_oeb[17] O
io_oeb[18] O
io_oeb[19] O
io_oeb[1] O
io_oeb[20] O
io_oeb[21] O
io_oeb[22] O
io_oeb[23] O
io_oeb[24] O
io_oeb[25] O
io_oeb[26] O
io_oeb[2] O
io_oeb[3] O
io_oeb[4] O
io_oeb[5] O
io_oeb[6] O
io_oeb[7] O
io_oeb[8] O
io_oeb[9] O
io_out[0] O
io_out[10] O
io_out[11] O
io_out[12] O
io_out[13] O
io_out[14] O
io_out[15] O
io_out[16] O
io_out[17] O
io_out[18] O
io_out[19] O
io_out[1] O
io_out[20] O
io_out[21] O
io_out[22] O
io_out[23] O
io_out[24] O
io_out[25] O
io_out[26] O
io_out[2] O
io_out[3] O
io_out[4] O
io_out[5] O
io_out[6] O
io_out[7] O
io_out[8] O
io_out[9] O
la_data_in[0] I
la_data_in[100] I
la_data_in[101] I
la_data_in[102] I
la_data_in[103] I
la_data_in[104] I
la_data_in[105] I
la_data_in[106] I
la_data_in[107] I
la_data_in[108] I
la_data_in[109] I
la_data_in[10] I
la_data_in[110] I
la_data_in[111] I
la_data_in[112] I
la_data_in[113] I
la_data_in[114] I
la_data_in[115] I
la_data_in[116] I
la_data_in[117] I
la_data_in[118] I
la_data_in[119] I
la_data_in[11] I
la_data_in[120] I
la_data_in[121] I
la_data_in[122] I
la_data_in[123] I
la_data_in[124] I
la_data_in[125] I
la_data_in[126] I
la_data_in[127] I
la_data_in[12] I
la_data_in[13] I
la_data_in[14] I
la_data_in[15] I
la_data_in[16] I
la_data_in[17] I
la_data_in[18] I
la_data_in[19] I
la_data_in[1] I
la_data_in[20] I
la_data_in[21] I
la_data_in[22] I
la_data_in[23] I
la_data_in[24] I
la_data_in[25] I
la_data_in[26] I
la_data_in[27] I
la_data_in[28] I
la_data_in[29] I
la_data_in[2] I
la_data_in[30] I
la_data_in[31] I
la_data_in[32] I
la_data_in[33] I
la_data_in[34] I
la_data_in[35] I
la_data_in[36] I
la_data_in[37] I
la_data_in[38] I
la_data_in[39] I
la_data_in[3] I
la_data_in[40] I
la_data_in[41] I
la_data_in[42] I
la_data_in[43] I
la_data_in[44] I
la_data_in[45] I
la_data_in[46] I
la_data_in[47] I
la_data_in[48] I
la_data_in[49] I
la_data_in[4] I
la_data_in[50] I
la_data_in[51] I
la_data_in[52] I
la_data_in[53] I
la_data_in[54] I
la_data_in[55] I
la_data_in[56] I
la_data_in[57] I
la_data_in[58] I
la_data_in[59] I
la_data_in[5] I
la_data_in[60] I
la_data_in[61] I
la_data_in[62] I
la_data_in[63] I
la_data_in[64] I
la_data_in[65] I
la_data_in[66] I
la_data_in[67] I
la_data_in[68] I
la_data_in[69] I
la_data_in[6] I
la_data_in[70] I
la_data_in[71] I
la_data_in[72] I
la_data_in[73] I
la_data_in[74] I
la_data_in[75] I
la_data_in[76] I
la_data_in[77] I
la_data_in[78] I
la_data_in[79] I
la_data_in[7] I
la_data_in[80] I
la_data_in[81] I
la_data_in[82] I
la_data_in[83] I
la_data_in[84] I
la_data_in[85] I
la_data_in[86] I
la_data_in[87] I
la_data_in[88] I
la_data_in[89] I
la_data_in[8] I
la_data_in[90] I
la_data_in[91] I
la_data_in[92] I
la_data_in[93] I
la_data_in[94] I
la_data_in[95] I
la_data_in[96] I
la_data_in[97] I
la_data_in[98] I
la_data_in[99] I
la_data_in[9] I
la_data_out[0] O
la_data_out[100] O
la_data_out[101] O
la_data_out[102] O
la_data_out[103] O
la_data_out[104] O
la_data_out[105] O
la_data_out[106] O
la_data_out[107] O
la_data_out[108] O
la_data_out[109] O
la_data_out[10] O
la_data_out[110] O
la_data_out[111] O
la_data_out[112] O
la_data_out[113] O
la_data_out[114] O
la_data_out[115] O
la_data_out[116] O
la_data_out[117] O
la_data_out[118] O
la_data_out[119] O
la_data_out[11] O
la_data_out[120] O
la_data_out[121] O
la_data_out[122] O
la_data_out[123] O
la_data_out[124] O
la_data_out[125] O
la_data_out[126] O
la_data_out[127] O
la_data_out[12] O
la_data_out[13] O
la_data_out[14] O
la_data_out[15] O
la_data_out[16] O
la_data_out[17] O
la_data_out[18] O
la_data_out[19] O
la_data_out[1] O
la_data_out[20] O
la_data_out[21] O
la_data_out[22] O
la_data_out[23] O
la_data_out[24] O
la_data_out[25] O
la_data_out[26] O
la_data_out[27] O
la_data_out[28] O
la_data_out[29] O
la_data_out[2] O
la_data_out[30] O
la_data_out[31] O
la_data_out[32] O
la_data_out[33] O
la_data_out[34] O
la_data_out[35] O
la_data_out[36] O
la_data_out[37] O
la_data_out[38] O
la_data_out[39] O
la_data_out[3] O
la_data_out[40] O
la_data_out[41] O
la_data_out[42] O
la_data_out[43] O
la_data_out[44] O
la_data_out[45] O
la_data_out[46] O
la_data_out[47] O
la_data_out[48] O
la_data_out[49] O
la_data_out[4] O
la_data_out[50] O
la_data_out[51] O
la_data_out[52] O
la_data_out[53] O
la_data_out[54] O
la_data_out[55] O
la_data_out[56] O
la_data_out[57] O
la_data_out[58] O
la_data_out[59] O
la_data_out[5] O
la_data_out[60] O
la_data_out[61] O
la_data_out[62] O
la_data_out[63] O
la_data_out[64] O
la_data_out[65] O
la_data_out[66] O
la_data_out[67] O
la_data_out[68] O
la_data_out[69] O
la_data_out[6] O
la_data_out[70] O
la_data_out[71] O
la_data_out[72] O
la_data_out[73] O
la_data_out[74] O
la_data_out[75] O
la_data_out[76] O
la_data_out[77] O
la_data_out[78] O
la_data_out[79] O
la_data_out[7] O
la_data_out[80] O
la_data_out[81] O
la_data_out[82] O
la_data_out[83] O
la_data_out[84] O
la_data_out[85] O
la_data_out[86] O
la_data_out[87] O
la_data_out[88] O
la_data_out[89] O
la_data_out[8] O
la_data_out[90] O
la_data_out[91] O
la_data_out[92] O
la_data_out[93] O
la_data_out[94] O
la_data_out[95] O
la_data_out[96] O
la_data_out[97] O
la_data_out[98] O
la_data_out[99] O
la_data_out[9] O
la_oenb[0] I
la_oenb[100] I
la_oenb[101] I
la_oenb[102] I
la_oenb[103] I
la_oenb[104] I
la_oenb[105] I
la_oenb[106] I
la_oenb[107] I
la_oenb[108] I
la_oenb[109] I
la_oenb[10] I
la_oenb[110] I
la_oenb[111] I
la_oenb[112] I
la_oenb[113] I
la_oenb[114] I
la_oenb[115] I
la_oenb[116] I
la_oenb[117] I
la_oenb[118] I
la_oenb[119] I
la_oenb[11] I
la_oenb[120] I
la_oenb[121] I
la_oenb[122] I
la_oenb[123] I
la_oenb[124] I
la_oenb[125] I
la_oenb[126] I
la_oenb[127] I
la_oenb[12] I
la_oenb[13] I
la_oenb[14] I
la_oenb[15] I
la_oenb[16] I
la_oenb[17] I
la_oenb[18] I
la_oenb[19] I
la_oenb[1] I
la_oenb[20] I
la_oenb[21] I
la_oenb[22] I
la_oenb[23] I
la_oenb[24] I
la_oenb[25] I
la_oenb[26] I
la_oenb[27] I
la_oenb[28] I
la_oenb[29] I
la_oenb[2] I
la_oenb[30] I
la_oenb[31] I
la_oenb[32] I
la_oenb[33] I
la_oenb[34] I
la_oenb[35] I
la_oenb[36] I
la_oenb[37] I
la_oenb[38] I
la_oenb[39] I
la_oenb[3] I
la_oenb[40] I
la_oenb[41] I
la_oenb[42] I
la_oenb[43] I
la_oenb[44] I
la_oenb[45] I
la_oenb[46] I
la_oenb[47] I
la_oenb[48] I
la_oenb[49] I
la_oenb[4] I
la_oenb[50] I
la_oenb[51] I
la_oenb[52] I
la_oenb[53] I
la_oenb[54] I
la_oenb[55] I
la_oenb[56] I
la_oenb[57] I
la_oenb[58] I
la_oenb[59] I
la_oenb[5] I
la_oenb[60] I
la_oenb[61] I
la_oenb[62] I
la_oenb[63] I
la_oenb[64] I
la_oenb[65] I
la_oenb[66] I
la_oenb[67] I
la_oenb[68] I
la_oenb[69] I
la_oenb[6] I
la_oenb[70] I
la_oenb[71] I
la_oenb[72] I
la_oenb[73] I
la_oenb[74] I
la_oenb[75] I
la_oenb[76] I
la_oenb[77] I
la_oenb[78] I
la_oenb[79] I
la_oenb[7] I
la_oenb[80] I
la_oenb[81] I
la_oenb[82] I
la_oenb[83] I
la_oenb[84] I
la_oenb[85] I
la_oenb[86] I
la_oenb[87] I
la_oenb[88] I
la_oenb[89] I
la_oenb[8] I
la_oenb[90] I
la_oenb[91] I
la_oenb[92] I
la_oenb[93] I
la_oenb[94] I
la_oenb[95] I
la_oenb[96] I
la_oenb[97] I
la_oenb[98] I
la_oenb[99] I
la_oenb[9] I
user_clock2 I
user_irq[0] O
user_irq[1] O
user_irq[2] O
wb_clk_i I
wb_rst_i I
wbs_ack_o O
wbs_adr_i[0] I
wbs_adr_i[10] I
wbs_adr_i[11] I
wbs_adr_i[12] I
wbs_adr_i[13] I
wbs_adr_i[14] I
wbs_adr_i[15] I
wbs_adr_i[16] I
wbs_adr_i[17] I
wbs_adr_i[18] I
wbs_adr_i[19] I
wbs_adr_i[1] I
wbs_adr_i[20] I
wbs_adr_i[21] I
wbs_adr_i[22] I
wbs_adr_i[23] I
wbs_adr_i[24] I
wbs_adr_i[25] I
wbs_adr_i[26] I
wbs_adr_i[27] I
wbs_adr_i[28] I
wbs_adr_i[29] I
wbs_adr_i[2] I
wbs_adr_i[30] I
wbs_adr_i[31] I
wbs_adr_i[3] I
wbs_adr_i[4] I
wbs_adr_i[5] I
wbs_adr_i[6] I
wbs_adr_i[7] I
wbs_adr_i[8] I
wbs_adr_i[9] I
wbs_cyc_i I
wbs_dat_i[0] I
wbs_dat_i[10] I
wbs_dat_i[11] I
wbs_dat_i[12] I
wbs_dat_i[13] I
wbs_dat_i[14] I
wbs_dat_i[15] I
wbs_dat_i[16] I
wbs_dat_i[17] I
wbs_dat_i[18] I
wbs_dat_i[19] I
wbs_dat_i[1] I
wbs_dat_i[20] I
wbs_dat_i[21] I
wbs_dat_i[22] I
wbs_dat_i[23] I
wbs_dat_i[24] I
wbs_dat_i[25] I
wbs_dat_i[26] I
wbs_dat_i[27] I
wbs_dat_i[28] I
wbs_dat_i[29] I
wbs_dat_i[2] I
wbs_dat_i[30] I
wbs_dat_i[31] I
wbs_dat_i[3] I
wbs_dat_i[4] I
wbs_dat_i[5] I
wbs_dat_i[6] I
wbs_dat_i[7] I
wbs_dat_i[8] I
wbs_dat_i[9] I
wbs_dat_o[0] O
wbs_dat_o[10] O
wbs_dat_o[11] O
wbs_dat_o[12] O
wbs_dat_o[13] O
wbs_dat_o[14] O
wbs_dat_o[15] O
wbs_dat_o[16] O
wbs_dat_o[17] O
wbs_dat_o[18] O
wbs_dat_o[19] O
wbs_dat_o[1] O
wbs_dat_o[20] O
wbs_dat_o[21] O
wbs_dat_o[22] O
wbs_dat_o[23] O
wbs_dat_o[24] O
wbs_dat_o[25] O
wbs_dat_o[26] O
wbs_dat_o[27] O
wbs_dat_o[28] O
wbs_dat_o[29] O
wbs_dat_o[2] O
wbs_dat_o[30] O
wbs_dat_o[31] O
wbs_dat_o[3] O
wbs_dat_o[4] O
wbs_dat_o[5] O
wbs_dat_o[6] O
wbs_dat_o[7] O
wbs_dat_o[8] O
wbs_dat_o[9] O
wbs_sel_i[0] I
wbs_sel_i[1] I
wbs_sel_i[2] I
wbs_sel_i[3] I
wbs_stb_i I
wbs_we_i I

*D_NET *54 0.231248
*CONN
*P io_in[0] I
*I *664:io_in[0] I *D signal_generator
*CAP
1 io_in[0] 0.00176568
2 *664:io_in[0] 0.00591296
3 *54:17 0.113228
4 *54:15 0.109081
5 *664:io_in[0] *664:io_in[3] 0
6 *664:io_in[0] *129:25 0.000904699
7 *664:io_in[0] *156:11 0.000355479
8 *54:15 *135:13 0
9 *54:17 *65:9 0
10 *54:17 *108:13 0
*RES
1 io_in[0] *54:15 5.38773 
2 *54:15 *54:17 274.357 
3 *54:17 *664:io_in[0] 17.0474 
*END

*D_NET *55 0.353689
*CONN
*P io_in[10] I
*I *664:io_in[10] I *D signal_generator
*CAP
1 io_in[10] 0.000163112
2 *664:io_in[10] 0.0418187
3 *55:15 0.0418187
4 *55:13 0.0703723
5 *55:11 0.0703723
6 *55:9 0.0644902
7 *55:7 0.0646533
8 *55:7 io_out[10] 0
9 *55:9 io_out[10] 0
10 *55:9 *136:13 0
*RES
1 io_in[10] *55:7 0.483867 
2 *55:7 *55:9 170.526 
3 *55:9 *55:11 0.5 
4 *55:11 *55:13 192.115 
5 *55:13 *55:15 0.5 
6 *55:15 *664:io_in[10] 110.143 
*END

*D_NET *56 0.380168
*CONN
*P io_in[11] I
*I *664:io_in[11] I *D signal_generator
*CAP
1 io_in[11] 0.000155434
2 *664:io_in[11] 0.0374854
3 *56:15 0.0374854
4 *56:13 0.0789936
5 *56:11 0.0789936
6 *56:9 0.0734494
7 *56:7 0.0736048
8 *56:9 *137:13 0
*RES
1 io_in[11] *56:7 0.4294 
2 *56:7 *56:9 181.83 
3 *56:9 *56:11 0.5 
4 *56:11 *56:13 215.027 
5 *56:13 *56:15 0.5 
6 *56:15 *664:io_in[11] 98.8393 
*END

*D_NET *57 0.485979
*CONN
*P io_in[12] I
*I *664:io_in[12] I *D signal_generator
*CAP
1 io_in[12] 0.000898313
2 *664:io_in[12] 0.11273
3 *57:15 0.11273
4 *57:13 0.04843
5 *57:11 0.0493283
6 *57:11 *138:13 0
7 *57:13 *80:13 0.0366761
8 *57:13 *109:9 0.00105192
9 *57:13 *111:9 0.124135
*RES
1 io_in[12] *57:11 2.69513 
2 *57:11 *57:13 1408.72 
3 *57:13 *57:15 0.5 
4 *57:15 *664:io_in[12] 278.912 
*END

*D_NET *58 0.43954
*CONN
*P io_in[13] I
*I *664:io_in[13] I *D signal_generator
*CAP
1 io_in[13] 0.000150637
2 *664:io_in[13] 0.0428701
3 *58:15 0.0428701
4 *58:13 0.106195
5 *58:11 0.106195
6 *58:9 0.0705541
7 *58:7 0.0707047
8 *58:9 *139:13 0
*RES
1 io_in[13] *58:7 0.416733 
2 *58:7 *58:9 174.838 
3 *58:9 *58:11 0.5 
4 *58:11 *58:13 289.446 
5 *58:13 *58:15 0.5 
6 *58:15 *664:io_in[13] 105.831 
*END

*D_NET *59 0.218666
*CONN
*P io_in[14] I
*I *664:io_in[14] I *D signal_generator
*CAP
1 io_in[14] 0.00179662
2 *664:io_in[14] 0.00325768
3 *59:13 0.0730863
4 *59:11 0.0716253
5 *59:11 io_out[14] 0
6 *59:13 *63:13 0.0688997
*RES
1 io_in[14] *59:11 5.03087 
2 *59:11 *59:13 235.182 
3 *59:13 *664:io_in[14] 8.5598 
*END

*D_NET *60 0.203713
*CONN
*P io_in[15] I
*I *664:io_in[15] I *D signal_generator
*CAP
1 io_in[15] 0.00384156
2 *664:io_in[15] 0.00111304
3 *60:13 0.0623455
4 *60:11 0.065074
5 *60:11 io_out[15] 0
6 *60:13 *62:13 0
7 *60:13 *113:9 0
8 *60:13 *117:9 0.0713393
*RES
1 io_in[15] *60:11 10.3293 
2 *60:11 *60:13 213.563 
3 *60:13 *664:io_in[15] 3.3158 
*END

*D_NET *61 0.206098
*CONN
*P io_in[16] I
*I *664:io_in[16] I *D signal_generator
*CAP
1 io_in[16] 0.00306506
2 *664:io_in[16] 0.00218465
3 *61:13 0.0473728
4 *61:11 0.0482532
5 *61:11 io_out[16] 0
6 *61:13 *664:io_in[21] 0.000938533
7 *61:13 *114:9 0.104284
8 *61:13 *115:9 0
*RES
1 io_in[16] *61:11 7.86567 
2 *61:11 *61:13 191.857 
3 *61:13 *664:io_in[16] 5.763 
*END

*D_NET *62 0.180171
*CONN
*P io_in[17] I
*I *664:io_in[17] I *D signal_generator
*CAP
1 io_in[17] 0.00385518
2 *664:io_in[17] 0.00135631
3 *62:13 0.043185
4 *62:11 0.0456839
5 *62:11 io_out[17] 0
6 *62:13 *113:9 0.0860909
7 *62:13 *117:9 0
8 *60:13 *62:13 0
*RES
1 io_in[17] *62:11 9.5972 
2 *62:11 *62:13 170.151 
3 *62:13 *664:io_in[17] 4.015 
*END

*D_NET *63 0.189294
*CONN
*P io_in[18] I
*I *664:io_in[18] I *D signal_generator
*CAP
1 io_in[18] 0.00204591
2 *664:io_in[18] 0.00309716
3 *63:13 0.0253717
4 *63:11 0.0243204
5 *63:11 io_out[18] 0
6 *63:13 *118:9 0.0655595
7 *59:13 *63:13 0.0688997
*RES
1 io_in[18] *63:11 5.21327 
2 *63:11 *63:13 148.36 
3 *63:13 *664:io_in[18] 8.44327 
*END

*D_NET *64 0.142168
*CONN
*P io_in[19] I
*I *664:io_in[19] I *D signal_generator
*CAP
1 io_in[19] 0.0041977
2 *664:io_in[19] 0.000991931
3 *64:13 0.032546
4 *64:11 0.0357518
5 *64:11 io_out[19] 0
6 *64:11 *140:15 0
7 *64:13 *117:9 0.0686801
*RES
1 io_in[19] *64:11 10.5827 
2 *64:11 *64:13 126.826 
3 *64:13 *664:io_in[19] 3.08273 
*END

*D_NET *65 0.229445
*CONN
*P io_in[1] I
*I *664:io_in[1] I *D signal_generator
*CAP
1 io_in[1] 0.000143245
2 *664:io_in[1] 0.0385555
3 *65:15 0.0444869
4 *65:9 0.0760237
5 *65:7 0.0702355
6 *65:7 io_out[1] 0
7 *65:9 io_out[1] 0
8 *65:9 *146:13 0
9 *65:15 *75:15 0
10 *54:17 *65:9 0
*RES
1 io_in[1] *65:7 0.430667 
2 *65:7 *65:9 179.266 
3 *65:9 *65:15 16.7143 
4 *65:15 *664:io_in[1] 101.403 
*END

*D_NET *66 0.119108
*CONN
*P io_in[20] I
*I *664:io_in[20] I *D signal_generator
*CAP
1 io_in[20] 0.0013282
2 *664:io_in[20] 0.00393256
3 *66:15 0.0329903
4 *66:13 0.0303859
5 *66:13 io_out[20] 0
6 *66:15 io_out[21] 0
7 *66:15 *116:9 0.0504711
*RES
1 io_in[20] *66:13 3.69327 
2 *66:13 *66:15 105.035 
3 *66:15 *664:io_in[20] 10.0747 
*END

*D_NET *67 0.0325608
*CONN
*P io_in[21] I
*I *664:io_in[21] I *D signal_generator
*CAP
1 io_in[21] 0.015807
2 *664:io_in[21] 0.015807
3 *664:io_in[21] io_out[21] 0
4 *664:io_in[21] *114:7 8.24893e-06
5 *664:io_in[21] *115:9 0
6 *664:io_in[21] *144:15 0
7 *61:13 *664:io_in[21] 0.000938533
*RES
1 io_in[21] *664:io_in[21] 43.7411 
*END

*D_NET *68 0.0167311
*CONN
*P io_in[22] I
*I *664:io_in[22] I *D signal_generator
*CAP
1 io_in[22] 0.00836554
2 *664:io_in[22] 0.00836554
3 *664:io_in[22] io_out[22] 0
4 *664:io_in[22] *120:7 0
*RES
1 io_in[22] *664:io_in[22] 22.0191 
*END

*D_NET *69 0.0247277
*CONN
*P io_in[23] I
*I *664:io_in[23] I *D signal_generator
*CAP
1 io_in[23] 0.009413
2 *664:io_in[23] 0.009413
3 *664:io_in[23] io_oeb[23] 0.00529022
4 *664:io_in[23] io_out[23] 0
5 *664:io_in[23] *124:9 0.00049621
6 *664:io_in[23] *152:7 0.000115273
*RES
1 io_in[23] *664:io_in[23] 26.9983 
*END

*D_NET *70 0.0261296
*CONN
*P io_in[24] I
*I *664:io_in[24] I *D signal_generator
*CAP
1 io_in[24] 0.012972
2 *664:io_in[24] 0.012972
3 *664:io_in[24] io_out[23] 0
4 *664:io_in[24] io_out[24] 0
5 *664:io_in[24] io_out[26] 0
6 *664:io_in[24] *560:23 0.000185727
*RES
1 io_in[24] *664:io_in[24] 34.9188 
*END

*D_NET *71 0.0238728
*CONN
*P io_in[25] I
*I *664:io_in[25] I *D signal_generator
*CAP
1 io_in[25] 0.0118076
2 *664:io_in[25] 0.0118076
3 *664:io_in[25] io_out[25] 0
4 *664:io_in[25] *561:7 0.000257697
*RES
1 io_in[25] *664:io_in[25] 32.1904 
*END

*D_NET *72 0.032824
*CONN
*P io_in[26] I
*I *664:io_in[26] I *D signal_generator
*CAP
1 io_in[26] 0.0104653
2 *664:io_in[26] 0.0104653
3 *664:io_in[26] io_oeb[26] 0.00660235
4 *664:io_in[26] io_out[26] 0
5 *664:io_in[26] wbs_dat_o[0] 0.000391981
6 *664:io_in[26] *124:9 0.00124907
7 *664:io_in[26] *125:9 0.00126498
8 *664:io_in[26] *152:9 0.0010194
9 *664:io_in[26] *558:11 0
10 *664:io_in[26] *559:15 0.000118665
11 *664:io_in[26] *560:23 0.000295284
12 *664:io_in[26] *572:11 0.000563726
13 *664:io_in[26] *593:11 2.11032e-05
14 *664:io_in[26] *594:11 0.000171799
15 *664:io_in[26] *662:15 0.000195086
*RES
1 io_in[26] *664:io_in[26] 29.7483 
*END

*D_NET *73 0.226183
*CONN
*P io_in[2] I
*I *664:io_in[2] I *D signal_generator
*CAP
1 io_in[2] 0.000151644
2 *664:io_in[2] 0.0375034
3 *73:15 0.0441035
4 *73:9 0.0754365
5 *73:7 0.0689881
6 *73:7 io_out[2] 0
7 *73:9 io_out[2] 0
8 *73:9 *154:13 0
*RES
1 io_in[2] *73:7 0.450933 
2 *73:7 *73:9 181.83 
3 *73:9 *73:15 18.8676 
4 *73:15 *664:io_in[2] 98.8393 
*END

*D_NET *74 0.228027
*CONN
*P io_in[3] I
*I *664:io_in[3] I *D signal_generator
*CAP
1 io_in[3] 0.000158696
2 *664:io_in[3] 0.00907728
3 *74:9 0.113395
4 *74:7 0.104476
5 *664:io_in[3] *76:9 0.000919924
6 *664:io_in[3] *156:11 0
7 *664:io_in[3] *157:13 0
8 *74:7 io_out[3] 0
9 *74:9 io_out[3] 0
10 *74:9 *155:25 0
11 *664:io_in[0] *664:io_in[3] 0
*RES
1 io_in[3] *74:7 0.4712 
2 *74:7 *74:9 275.406 
3 *74:9 *664:io_in[3] 26.2839 
*END

*D_NET *75 0.238318
*CONN
*P io_in[4] I
*I *664:io_in[4] I *D signal_generator
*CAP
1 io_in[4] 0.000179888
2 *664:io_in[4] 0.0381737
3 *75:15 0.0462737
4 *75:9 0.0808052
5 *75:7 0.0728851
6 *75:9 *156:13 0
7 *65:15 *75:15 0
*RES
1 io_in[4] *75:7 0.491467 
2 *75:7 *75:9 180.082 
3 *75:9 *75:15 23.1743 
4 *75:15 *664:io_in[4] 100.587 
*END

*D_NET *76 0.22508
*CONN
*P io_in[5] I
*I *664:io_in[5] I *D signal_generator
*CAP
1 io_in[5] 0.000148094
2 *664:io_in[5] 0.00368938
3 *76:9 0.108923
4 *76:7 0.105382
5 *664:io_in[5] *128:9 0.000184106
6 *664:io_in[5] *129:21 0.000491091
7 *664:io_in[5] *155:19 0
8 *664:io_in[5] *157:11 0.00534304
9 *76:7 io_out[5] 0
10 *76:9 io_out[5] 0
11 *76:9 *157:13 0
12 *664:io_in[3] *76:9 0.000919924
*RES
1 io_in[5] *76:7 0.4446 
2 *76:7 *76:9 278.669 
3 *76:9 *664:io_in[5] 13.6325 
*END

*D_NET *77 0.224742
*CONN
*P io_in[6] I
*I *664:io_in[6] I *D signal_generator
*CAP
1 io_in[6] 0.00440492
2 *664:io_in[6] 0.105494
3 *77:15 0.109899
4 *77:15 io_oeb[6] 0.00494447
5 *77:15 io_out[6] 0
6 *77:15 *158:13 0
*RES
1 io_in[6] *77:15 15.7263 
2 *77:15 *664:io_in[6] 278.883 
*END

*D_NET *78 0.371006
*CONN
*P io_in[7] I
*I *664:io_in[7] I *D signal_generator
*CAP
1 io_in[7] 0.000804294
2 *664:io_in[7] 0.105635
3 *78:15 0.105635
4 *78:13 0.0137541
5 *78:11 0.0145584
6 *78:11 io_out[7] 0
7 *78:11 *159:13 0
8 *78:13 io_oeb[6] 0.00477662
9 *78:13 *79:13 0.00121048
10 *78:13 *80:13 0.00108088
11 *78:13 *132:9 0.0645789
12 *78:13 *134:9 0.0589724
*RES
1 io_in[7] *78:11 2.51273 
2 *78:11 *78:13 121.314 
3 *78:13 *78:15 0.5 
4 *78:15 *664:io_in[7] 279.116 
*END

*D_NET *79 0.379158
*CONN
*P io_in[8] I
*I *664:io_in[8] I *D signal_generator
*CAP
1 io_in[8] 0.000819755
2 *664:io_in[8] 0.11267
3 *79:15 0.11267
4 *79:13 0.0310155
5 *79:11 0.0318353
6 *79:11 *160:13 0
7 *79:13 io_oeb[6] 0.000567102
8 *79:13 *109:9 0.0690828
9 *79:13 *134:9 0.0192878
10 *78:13 *79:13 0.00121048
*RES
1 io_in[8] *79:11 2.5102 
2 *79:11 *79:13 854.355 
3 *79:13 *79:15 0.5 
4 *79:15 *664:io_in[8] 279.087 
*END

*D_NET *80 0.454972
*CONN
*P io_in[9] I
*I *664:io_in[9] I *D signal_generator
*CAP
1 io_in[9] 0.000941013
2 *664:io_in[9] 0.112609
3 *80:15 0.112609
4 *80:13 0.0398163
5 *80:11 0.0407573
6 *80:11 *161:13 0
7 *80:13 *111:9 0.0202751
8 *80:13 *134:9 0.0902065
9 *57:13 *80:13 0.0366761
10 *78:13 *80:13 0.00108088
*RES
1 io_in[9] *80:11 2.71287 
2 *80:11 *80:13 167.826 
3 *80:13 *80:15 0.5 
4 *80:15 *664:io_in[9] 278.883 
*END

*D_NET *108 0.242344
*CONN
*P io_oeb[0] O
*I *664:io_oeb[0] O *D signal_generator
*CAP
1 io_oeb[0] 0.000161723
2 *664:io_oeb[0] 0.00321805
3 *108:13 0.109213
4 *108:11 0.112269
5 *108:11 *127:19 0.000633296
6 *108:11 *128:9 0.000147293
7 *108:11 *129:21 0.000204634
8 *108:11 *135:11 0.00745123
9 *108:11 *146:11 0.00716538
10 *108:11 *154:11 0
11 *108:11 *155:19 6.71272e-05
12 *108:11 *155:23 0.00181289
13 *108:13 *135:13 0
14 *54:17 *108:13 0
*RES
1 *664:io_oeb[0] *108:11 18.4559 
2 *108:11 *108:13 278.669 
3 *108:13 io_oeb[0] 0.4636 
*END

*D_NET *109 0.459898
*CONN
*P io_oeb[10] O
*I *664:io_oeb[10] O *D signal_generator
*CAP
1 io_oeb[10] 0.000826246
2 *664:io_oeb[10] 0.112734
3 *109:9 0.0244717
4 *109:7 0.0236455
5 *109:5 0.112734
6 io_oeb[10] *136:13 0
7 *109:9 *111:9 0.0952014
8 *109:9 *134:9 0.0201502
9 *57:13 *109:9 0.00105192
10 *79:13 *109:9 0.0690828
*RES
1 *664:io_oeb[10] *109:5 279.029 
2 *109:5 *109:7 0.5 
3 *109:7 *109:9 1125.68 
4 *109:9 io_oeb[10] 2.59127 
*END

*D_NET *110 0.464251
*CONN
*P io_oeb[11] O
*I *664:io_oeb[11] O *D signal_generator
*CAP
1 io_oeb[11] 0.000162663
2 *664:io_oeb[11] 0.00103305
3 *110:13 0.10543
4 *110:11 0.105267
5 *110:9 0.035305
6 *110:7 0.0363381
7 io_oeb[11] io_out[11] 0
8 io_oeb[11] *137:13 0
9 *110:9 *112:9 0.111219
10 *110:9 *133:9 0.069496
11 *110:9 *160:9 0
12 *110:13 *137:13 0
*RES
1 *664:io_oeb[11] *110:7 3.3158 
2 *110:7 *110:9 213.132 
3 *110:9 *110:11 0.5 
4 *110:11 *110:13 277.853 
5 *110:13 io_oeb[11] 0.4826 
*END

*D_NET *111 0.505277
*CONN
*P io_oeb[12] O
*I *664:io_oeb[12] O *D signal_generator
*CAP
1 io_oeb[12] 0.000814217
2 *664:io_oeb[12] 0.105747
3 *111:9 0.0270858
4 *111:7 0.0262716
5 *111:5 0.105747
6 io_oeb[12] io_out[12] 0
7 io_oeb[12] *138:13 0
8 *57:13 *111:9 0.124135
9 *80:13 *111:9 0.0202751
10 *109:9 *111:9 0.0952014
*RES
1 *664:io_oeb[12] *111:5 278.971 
2 *111:5 *111:7 0.5 
3 *111:7 *111:9 1397.51 
4 *111:9 io_oeb[12] 2.62673 
*END

*D_NET *112 0.489112
*CONN
*P io_oeb[13] O
*I *664:io_oeb[13] O *D signal_generator
*CAP
1 io_oeb[13] 0.000160165
2 *664:io_oeb[13] 0.0010125
3 *112:13 0.108922
4 *112:11 0.108761
5 *112:9 0.0790122
6 *112:7 0.0800247
7 io_oeb[13] io_out[13] 0
8 io_oeb[13] *139:13 0
9 *112:9 *137:9 0
10 *112:9 *139:9 0
11 *112:9 *160:9 0
12 *112:13 *139:13 0
13 *110:9 *112:9 0.111219
*RES
1 *664:io_oeb[13] *112:7 3.19927 
2 *112:7 *112:9 287.551 
3 *112:9 *112:11 0.5 
4 *112:11 *112:13 277.97 
5 *112:13 io_oeb[13] 0.469933 
*END

*D_NET *113 0.228977
*CONN
*P io_oeb[14] O
*I *664:io_oeb[14] O *D signal_generator
*CAP
1 io_oeb[14] 0.0035236
2 *664:io_oeb[14] 0.00143687
3 *113:9 0.070006
4 *113:7 0.0679193
5 io_oeb[14] io_out[14] 0
6 *60:13 *113:9 0
7 *62:13 *113:9 0.0860909
*RES
1 *664:io_oeb[14] *113:7 4.13153 
2 *113:7 *113:9 237.508 
3 *113:9 io_oeb[14] 9.47687 
*END

*D_NET *114 0.223057
*CONN
*P io_oeb[15] O
*I *664:io_oeb[15] O *D signal_generator
*CAP
1 io_oeb[15] 0.00284962
2 *664:io_oeb[15] 0.00224201
3 *114:9 0.0571403
4 *114:7 0.0565326
5 io_oeb[15] io_out[15] 0
6 *114:9 *115:9 0
7 *664:io_in[21] *114:7 8.24893e-06
8 *61:13 *114:9 0.104284
*RES
1 *664:io_oeb[15] *114:7 5.87953 
2 *114:7 *114:9 215.802 
3 *114:9 io_oeb[15] 7.7124 
*END

*D_NET *115 0.169872
*CONN
*P io_oeb[16] O
*I *664:io_oeb[16] O *D signal_generator
*CAP
1 io_oeb[16] 0.00257084
2 *664:io_oeb[16] 0.00244945
3 *115:9 0.0824866
4 *115:7 0.0823652
5 io_oeb[16] io_out[16] 0
6 *664:io_in[21] *115:9 0
7 *61:13 *115:9 0
8 *114:9 *115:9 0
*RES
1 *664:io_oeb[16] *115:7 6.8118 
2 *115:7 *115:9 194.183 
3 *115:9 io_oeb[16] 6.8498 
*END

*D_NET *116 0.209731
*CONN
*P io_oeb[17] O
*I *664:io_oeb[17] O *D signal_generator
*CAP
1 io_oeb[17] 0.00133876
2 *664:io_oeb[17] 0.00384538
3 *116:9 0.0321816
4 *116:7 0.0346882
5 io_oeb[17] io_out[17] 0
6 *116:9 io_out[21] 0
7 *116:9 *141:9 0.0872059
8 *116:9 *147:9 0
9 *66:15 *116:9 0.0504711
*RES
1 *664:io_oeb[17] *116:7 10.1913 
2 *116:7 *116:9 172.046 
3 *116:9 io_oeb[17] 4.06947 
*END

*D_NET *117 0.194008
*CONN
*P io_oeb[18] O
*I *664:io_oeb[18] O *D signal_generator
*CAP
1 io_oeb[18] 0.00409633
2 *664:io_oeb[18] 0.00105248
3 *117:9 0.0259417
4 *117:7 0.0228979
5 io_oeb[18] io_out[18] 0
6 *60:13 *117:9 0.0713393
7 *62:13 *117:9 0
8 *64:13 *117:9 0.0686801
*RES
1 *664:io_oeb[18] *117:7 3.19927 
2 *117:7 *117:9 150.771 
3 *117:9 io_oeb[18] 10.4294 
*END

*D_NET *118 0.138848
*CONN
*P io_oeb[19] O
*I *664:io_oeb[19] O *D signal_generator
*CAP
1 io_oeb[19] 0.00220301
2 *664:io_oeb[19] 0.00313288
3 *118:9 0.0335113
4 *118:7 0.0344412
5 io_oeb[19] io_out[19] 0
6 *63:13 *118:9 0.0655595
*RES
1 *664:io_oeb[19] *118:7 8.32673 
2 *118:7 *118:9 128.635 
3 *118:9 io_oeb[19] 6.2 
*END

*D_NET *119 0.231587
*CONN
*P io_oeb[1] O
*I *664:io_oeb[1] O *D signal_generator
*CAP
1 io_oeb[1] 0.000163112
2 *664:io_oeb[1] 0.00442508
3 *119:13 0.105837
4 *119:11 0.110099
5 io_oeb[1] io_out[1] 0
6 io_oeb[1] *146:13 0
7 *119:11 *127:15 0.00210925
8 *119:11 *129:21 0.000294587
9 *119:11 *146:11 0.00865948
10 *119:11 *154:11 0
11 *119:13 *146:13 0
*RES
1 *664:io_oeb[1] *119:11 20.3762 
2 *119:11 *119:13 278.902 
3 *119:13 io_oeb[1] 0.483867 
*END

*D_NET *120 0.127844
*CONN
*P io_oeb[20] O
*I *664:io_oeb[20] O *D signal_generator
*CAP
1 io_oeb[20] 0.000818833
2 *664:io_oeb[20] 0.00409685
3 *120:9 0.0146238
4 *120:7 0.0179018
5 io_oeb[20] io_out[20] 0
6 io_oeb[20] *142:15 2.91371e-05
7 *120:7 io_out[22] 0.000101435
8 *120:7 *121:15 0
9 *120:9 io_oeb[21] 0.00598078
10 *120:9 io_out[21] 0.000566964
11 *120:9 *144:17 0.0254364
12 *120:9 *145:17 0.000178055
13 *120:9 *147:9 0.05811
14 *664:io_in[22] *120:7 0
*RES
1 *664:io_oeb[20] *120:7 11.1235 
2 *120:7 *120:9 107.446 
3 *120:9 io_oeb[20] 2.4874 
*END

*D_NET *121 0.0364276
*CONN
*P io_oeb[21] O
*I *664:io_oeb[21] O *D signal_generator
*CAP
1 io_oeb[21] 0.0087601
2 *664:io_oeb[21] 0.00590073
3 *121:15 0.0146608
4 io_oeb[21] io_out[21] 0
5 io_oeb[21] io_out[22] 4.14798e-05
6 io_oeb[21] *145:15 1.24541e-05
7 *121:15 io_oeb[22] 4.57777e-05
8 *121:15 io_out[21] 0.000716188
9 *121:15 io_out[22] 0.000309295
10 *120:7 *121:15 0
11 *120:9 io_oeb[21] 0.00598078
*RES
1 *664:io_oeb[21] *121:15 42.1961 
2 *121:15 io_oeb[21] 29.4459 
*END

*D_NET *122 0.0195664
*CONN
*P io_oeb[22] O
*I *664:io_oeb[22] O *D signal_generator
*CAP
1 io_oeb[22] 0.00737953
2 *664:io_oeb[22] 0.00737953
3 io_oeb[22] io_out[22] 0.00476157
4 *121:15 io_oeb[22] 4.57777e-05
*RES
1 *664:io_oeb[22] io_oeb[22] 24.5347 
*END

*D_NET *123 0.0210493
*CONN
*P io_oeb[23] O
*I *664:io_oeb[23] O *D signal_generator
*CAP
1 io_oeb[23] 0.00771939
2 *664:io_oeb[23] 0.00771939
3 io_oeb[23] io_out[23] 0
4 io_oeb[23] *124:9 0.000163692
5 io_oeb[23] *125:7 3.87582e-05
6 io_oeb[23] *152:9 0.000117824
7 *664:io_in[23] io_oeb[23] 0.00529022
*RES
1 *664:io_oeb[23] io_oeb[23] 24.7057 
*END

*D_NET *124 0.0334375
*CONN
*P io_oeb[24] O
*I *664:io_oeb[24] O *D signal_generator
*CAP
1 io_oeb[24] 0.00410421
2 *664:io_oeb[24] 0.000652122
3 *124:9 0.00652905
4 *124:7 0.00307696
5 io_oeb[24] io_out[24] 0
6 io_oeb[24] *559:21 0.00101472
7 *124:9 *125:9 0.00702252
8 *124:9 *151:9 0.00110469
9 *124:9 *152:9 0.00802425
10 io_oeb[23] *124:9 0.000163692
11 *664:io_in[23] *124:9 0.00049621
12 *664:io_in[26] *124:9 0.00124907
*RES
1 *664:io_oeb[24] *124:7 2.23787 
2 *124:7 *124:9 112.305 
3 *124:9 io_oeb[24] 11.3629 
*END

*D_NET *125 0.0263881
*CONN
*P io_oeb[25] O
*I *664:io_oeb[25] O *D signal_generator
*CAP
1 io_oeb[25] 0.00461817
2 *664:io_oeb[25] 0.000575007
3 *125:9 0.00811579
4 *125:7 0.00407263
5 io_oeb[25] io_out[25] 0
6 *125:9 *152:9 0.000680208
7 *125:9 *583:5 0
8 *125:9 *616:7 0
9 io_oeb[23] *125:7 3.87582e-05
10 *664:io_in[26] *125:9 0.00126498
11 *124:9 *125:9 0.00702252
*RES
1 *664:io_oeb[25] *125:7 2.1796 
2 *125:7 *125:9 95.985 
3 *125:9 io_oeb[25] 11.4871 
*END

*D_NET *126 0.0246201
*CONN
*P io_oeb[26] O
*I *664:io_oeb[26] O *D signal_generator
*CAP
1 io_oeb[26] 0.00886528
2 *664:io_oeb[26] 0.00886528
3 io_oeb[26] io_out[26] 0
4 io_oeb[26] *616:7 0.000287211
5 io_oeb[26] *637:23 0
6 io_oeb[26] *658:15 0
7 *664:io_in[26] io_oeb[26] 0.00660235
*RES
1 *664:io_oeb[26] io_oeb[26] 27.2073 
*END

*D_NET *127 0.239472
*CONN
*P io_oeb[2] O
*I *664:io_oeb[2] O *D signal_generator
*CAP
1 io_oeb[2] 0.000145445
2 *664:io_oeb[2] 0.00331054
3 *127:21 0.10919
4 *127:19 0.110422
5 *127:15 0.00468783
6 io_oeb[2] io_out[2] 0
7 io_oeb[2] *154:13 0
8 *127:15 *135:11 7.29832e-05
9 *127:15 *154:11 0
10 *127:15 *155:19 0.00321203
11 *127:19 *128:9 0.000925072
12 *127:19 *129:21 0.00114817
13 *127:19 *135:11 0.000471265
14 *127:19 *155:23 0.00314365
15 *127:21 *154:13 0
16 *108:11 *127:19 0.000633296
17 *119:11 *127:15 0.00210925
*RES
1 *664:io_oeb[2] *127:15 15.3497 
2 *127:15 *127:19 49.055 
3 *127:19 *127:21 278.524 
4 *127:21 io_oeb[2] 0.418 
*END

*D_NET *128 0.241753
*CONN
*P io_oeb[3] O
*I *664:io_oeb[3] O *D signal_generator
*CAP
1 io_oeb[3] 0.000151562
2 *664:io_oeb[3] 0.00082809
3 *128:13 0.109154
4 *128:11 0.109002
5 *128:9 0.00458042
6 *128:7 0.00540851
7 *128:7 *129:19 0.000528392
8 *128:9 *129:21 0.00998781
9 *128:9 *135:11 0.000568637
10 *128:9 *146:11 0.000287211
11 *128:13 *155:25 0
12 *664:io_in[5] *128:9 0.000184106
13 *108:11 *128:9 0.000147293
14 *127:19 *128:9 0.000925072
*RES
1 *664:io_oeb[3] *128:7 2.76227 
2 *128:7 *128:9 130.155 
3 *128:9 *128:11 0.5 
4 *128:11 *128:13 278.407 
5 *128:13 io_oeb[3] 0.438267 
*END

*D_NET *129 0.238226
*CONN
*P io_oeb[4] O
*I *664:io_oeb[4] O *D signal_generator
*CAP
1 io_oeb[4] 0.000154288
2 *664:io_oeb[4] 0.00268798
3 *129:25 0.105426
4 *129:23 0.105272
5 *129:21 0.00344408
6 *129:19 0.00613206
7 io_oeb[4] io_out[4] 0
8 io_oeb[4] *156:13 0
9 *129:19 *130:11 0.000362859
10 *129:21 *135:11 0.000233006
11 *129:21 *146:11 0.000432447
12 *129:21 *155:23 0.000521991
13 *129:25 *156:13 0
14 *664:io_in[0] *129:25 0.000904699
15 *664:io_in[5] *129:21 0.000491091
16 *108:11 *129:21 0.000204634
17 *119:11 *129:21 0.000294587
18 *127:19 *129:21 0.00114817
19 *128:7 *129:19 0.000528392
20 *128:9 *129:21 0.00998781
*RES
1 *664:io_oeb[4] *129:19 9.11013 
2 *129:19 *129:21 111.795 
3 *129:21 *129:23 0.5 
4 *129:23 *129:25 278.465 
5 *129:25 io_oeb[4] 0.458533 
*END

*D_NET *130 0.232388
*CONN
*P io_oeb[5] O
*I *664:io_oeb[5] O *D signal_generator
*CAP
1 io_oeb[5] 0.000143046
2 *664:io_oeb[5] 0.00370597
3 *130:13 0.109334
4 *130:11 0.112897
5 io_oeb[5] io_out[5] 0
6 io_oeb[5] *157:13 0
7 *130:11 *155:19 1.95933e-05
8 *130:11 *157:11 0.00592575
9 *130:13 *157:13 0
10 *129:19 *130:11 0.000362859
*RES
1 *664:io_oeb[5] *130:11 15.3805 
2 *130:11 *130:13 278.902 
3 *130:13 io_oeb[5] 0.411667 
*END

*D_NET *131 0.241029
*CONN
*P io_oeb[6] O
*I *664:io_oeb[6] O *D signal_generator
*CAP
1 io_oeb[6] 0.00273308
2 *664:io_oeb[6] 0.112637
3 *131:5 0.11537
4 io_oeb[6] *158:13 0
5 *77:15 io_oeb[6] 0.00494447
6 *78:13 io_oeb[6] 0.00477662
7 *79:13 io_oeb[6] 0.000567102
*RES
1 *664:io_oeb[6] *131:5 279 
2 *131:5 io_oeb[6] 13.6489 
*END

*D_NET *132 0.349363
*CONN
*P io_oeb[7] O
*I *664:io_oeb[7] O *D signal_generator
*CAP
1 io_oeb[7] 0.000726911
2 *664:io_oeb[7] 0.112745
3 *132:9 0.0294191
4 *132:7 0.0286922
5 *132:5 0.112745
6 io_oeb[7] *159:13 0
7 *132:9 *134:9 0.000455148
8 *78:13 *132:9 0.0645789
*RES
1 *664:io_oeb[7] *132:5 279.233 
2 *132:5 *132:7 0.5 
3 *132:7 *132:9 119.419 
4 *132:9 io_oeb[7] 2.267 
*END

*D_NET *133 0.354373
*CONN
*P io_oeb[8] O
*I *664:io_oeb[8] O *D signal_generator
*CAP
1 io_oeb[8] 0.00014589
2 *664:io_oeb[8] 0.00106911
3 *133:13 0.105499
4 *133:11 0.105353
5 *133:9 0.035871
6 *133:7 0.0369401
7 io_oeb[8] io_out[8] 0
8 io_oeb[8] *160:13 0
9 *133:7 *158:13 0
10 *133:9 *160:9 0
11 *133:13 *160:13 0
12 *110:9 *133:9 0.069496
*RES
1 *664:io_oeb[8] *133:7 3.43233 
2 *133:7 *133:9 142.416 
3 *133:9 *133:11 0.5 
4 *133:11 *133:13 277.737 
5 *133:13 io_oeb[8] 0.438267 
*END

*D_NET *134 0.45307
*CONN
*P io_oeb[9] O
*I *664:io_oeb[9] O *D signal_generator
*CAP
1 io_oeb[9] 0.000840024
2 *664:io_oeb[9] 0.105634
3 *134:9 0.0263647
4 *134:7 0.0255246
5 *134:5 0.105634
6 io_oeb[9] *161:13 0
7 *78:13 *134:9 0.0589724
8 *79:13 *134:9 0.0192878
9 *80:13 *134:9 0.0902065
10 *109:9 *134:9 0.0201502
11 *132:9 *134:9 0.000455148
*RES
1 *664:io_oeb[9] *134:5 279 
2 *134:5 *134:7 0.5 
3 *134:7 *134:9 165.845 
4 *134:9 io_oeb[9] 2.58873 
*END

*D_NET *135 0.243044
*CONN
*P io_out[0] O
*I *664:io_out[0] O *D signal_generator
*CAP
1 io_out[0] 0.000158313
2 *664:io_out[0] 0.00445539
3 *135:13 0.112668
4 *135:11 0.116965
5 *135:11 *154:11 0
6 *54:15 *135:13 0
7 *108:11 *135:11 0.00745123
8 *108:13 *135:13 0
9 *127:15 *135:11 7.29832e-05
10 *127:19 *135:11 0.000471265
11 *128:9 *135:11 0.000568637
12 *129:21 *135:11 0.000233006
*RES
1 *664:io_out[0] *135:11 17.625 
2 *135:11 *135:13 278.553 
3 *135:13 io_out[0] 0.437 
*END

*D_NET *136 0.368988
*CONN
*P io_out[10] O
*I *664:io_out[10] O *D signal_generator
*CAP
1 io_out[10] 0.000147844
2 *664:io_out[10] 0.00168071
3 *136:13 0.109611
4 *136:11 0.109463
5 *136:9 0.0732022
6 *136:7 0.0748829
7 *136:9 *138:9 0
8 io_oeb[10] *136:13 0
9 *55:7 io_out[10] 0
10 *55:9 io_out[10] 0
11 *55:9 *136:13 0
*RES
1 *664:io_out[10] *136:7 4.94727 
2 *136:7 *136:9 191.082 
3 *136:9 *136:11 0.5 
4 *136:11 *136:13 276.222 
5 *136:13 io_out[10] 0.424333 
*END

*D_NET *137 0.470148
*CONN
*P io_out[11] O
*I *664:io_out[11] O *D signal_generator
*CAP
1 io_out[11] 0.000159079
2 *664:io_out[11] 0.000668666
3 *137:13 0.108094
4 *137:11 0.107935
5 *137:9 0.0354683
6 *137:7 0.036137
7 *137:9 *139:9 0.111719
8 *137:9 *160:9 0.0699666
9 io_oeb[11] io_out[11] 0
10 io_oeb[11] *137:13 0
11 *56:9 *137:13 0
12 *110:13 *137:13 0
13 *112:9 *137:9 0
*RES
1 *664:io_out[11] *137:7 2.38353 
2 *137:7 *137:9 214.079 
3 *137:9 *137:11 0.5 
4 *137:11 *137:13 278.786 
5 *137:13 io_out[11] 0.456 
*END

*D_NET *138 0.387194
*CONN
*P io_out[12] O
*I *664:io_out[12] O *D signal_generator
*CAP
1 io_out[12] 0.000170139
2 *664:io_out[12] 0.00202454
3 *138:13 0.104499
4 *138:11 0.104329
5 *138:9 0.0870732
6 *138:7 0.0890977
7 io_oeb[12] io_out[12] 0
8 io_oeb[12] *138:13 0
9 *57:11 *138:13 0
10 *136:9 *138:9 0
*RES
1 *664:io_out[12] *138:7 5.763 
2 *138:7 *138:9 237.077 
3 *138:9 *138:11 0.5 
4 *138:11 *138:13 275.406 
5 *138:13 io_out[12] 0.487667 
*END

*D_NET *139 0.487519
*CONN
*P io_out[13] O
*I *664:io_out[13] O *D signal_generator
*CAP
1 io_out[13] 0.000153325
2 *664:io_out[13] 0.000680113
3 *139:13 0.107969
4 *139:11 0.107816
5 *139:9 0.0792512
6 *139:7 0.0799313
7 io_oeb[13] io_out[13] 0
8 io_oeb[13] *139:13 0
9 *58:9 *139:13 0
10 *112:9 *139:9 0
11 *112:13 *139:13 0
12 *137:9 *139:9 0.111719
*RES
1 *664:io_out[13] *139:7 2.267 
2 *139:7 *139:9 288.499 
3 *139:9 *139:11 0.5 
4 *139:11 *139:13 278.902 
5 *139:13 io_out[13] 0.443333 
*END

*D_NET *140 0.23802
*CONN
*P io_out[14] O
*I *664:io_out[14] O *D signal_generator
*CAP
1 io_out[14] 0.000887114
2 *664:io_out[14] 0.00435029
3 *140:17 0.0344383
4 *140:15 0.0337656
5 *140:9 0.0238906
6 *140:7 0.0280265
7 *140:9 *142:9 0.00026078
8 *140:9 *143:9 0.0375597
9 *140:9 *143:17 0.00668241
10 *140:9 *147:9 0.00605582
11 *140:17 *141:9 0
12 *140:17 *142:17 0.044786
13 *140:17 *143:17 0.017317
14 io_oeb[14] io_out[14] 0
15 *59:11 io_out[14] 0
16 *64:11 *140:15 0
*RES
1 *664:io_out[14] *140:7 10.6865 
2 *140:7 *140:9 590.175 
3 *140:9 *140:15 1.475 
4 *140:15 *140:17 136.473 
5 *140:17 io_out[14] 2.704 
*END

*D_NET *141 0.21319
*CONN
*P io_out[15] O
*I *664:io_out[15] O *D signal_generator
*CAP
1 io_out[15] 0.00114125
2 *664:io_out[15] 0.0039659
3 *141:9 0.0590261
4 *141:7 0.0618507
5 *141:9 *143:17 0
6 *141:9 *147:9 0
7 io_oeb[15] io_out[15] 0
8 *60:11 io_out[15] 0
9 *116:9 *141:9 0.0872059
10 *140:17 *141:9 0
*RES
1 *664:io_out[15] *141:7 10.3078 
2 *141:7 *141:9 214.51 
3 *141:9 io_out[15] 3.45007 
*END

*D_NET *142 0.228732
*CONN
*P io_out[16] O
*I *664:io_out[16] O *D signal_generator
*CAP
1 io_out[16] 0.000832573
2 *664:io_out[16] 0.00412296
3 *142:17 0.0205725
4 *142:15 0.0199376
5 *142:9 0.0167721
6 *142:7 0.0206974
7 *142:9 io_out[21] 0.000271736
8 *142:9 *143:9 0.0435868
9 *142:9 *143:17 0.000212642
10 *142:9 *144:9 0.00150443
11 *142:9 *147:9 0.018683
12 *142:15 io_out[20] 3.5069e-05
13 *142:15 *143:15 0
14 *142:17 *143:17 0.00609609
15 *142:17 *144:17 0.0302057
16 *142:17 *147:9 0.000125565
17 io_oeb[16] io_out[16] 0
18 io_oeb[20] *142:15 2.91371e-05
19 *61:11 io_out[16] 0
20 *140:9 *142:9 0.00026078
21 *140:17 *142:17 0.044786
*RES
1 *664:io_out[16] *142:7 10.8031 
2 *142:7 *142:9 492.255 
3 *142:9 *142:15 1.475 
4 *142:15 *142:17 109.6 
5 *142:17 io_out[16] 2.6204 
*END

*D_NET *143 0.196265
*CONN
*P io_out[17] O
*I *664:io_out[17] O *D signal_generator
*CAP
1 io_out[17] 0.000903847
2 *664:io_out[17] 0.00406116
3 *143:17 0.0227025
4 *143:15 0.0218951
5 *143:9 0.00846408
6 *143:7 0.0124288
7 *143:9 io_out[21] 0.000967503
8 *143:9 *144:9 0.00175747
9 *143:9 *145:9 0.00410947
10 *143:9 *147:9 0.00684176
11 *143:17 *147:9 0.000678746
12 io_oeb[17] io_out[17] 0
13 *62:11 io_out[17] 0
14 *140:9 *143:9 0.0375597
15 *140:9 *143:17 0.00668241
16 *140:17 *143:17 0.017317
17 *141:9 *143:17 0
18 *142:9 *143:9 0.0435868
19 *142:9 *143:17 0.000212642
20 *142:15 *143:15 0
21 *142:17 *143:17 0.00609609
*RES
1 *664:io_out[17] *143:7 10.7448 
2 *143:7 *143:9 520.815 
3 *143:9 *143:15 1.18367 
4 *143:15 *143:17 83.3289 
5 *143:17 io_out[17] 2.69513 
*END

*D_NET *144 0.179383
*CONN
*P io_out[18] O
*I *664:io_out[18] O *D signal_generator
*CAP
1 io_out[18] 0.000762131
2 *664:io_out[18] 0.0043006
3 *144:17 0.0204705
4 *144:15 0.0198824
5 *144:9 0.00329369
6 *144:7 0.00742022
7 *144:9 io_out[21] 0.00327558
8 *144:9 *145:9 0.00133844
9 *144:15 io_out[21] 0.000326639
10 *144:17 *145:17 0.0593365
11 *144:17 *147:9 7.27106e-05
12 io_oeb[18] io_out[18] 0
13 *664:io_in[21] *144:15 0
14 *63:11 io_out[18] 0
15 *120:9 *144:17 0.0254364
16 *142:9 *144:9 0.00150443
17 *142:17 *144:17 0.0302057
18 *143:9 *144:9 0.00175747
*RES
1 *664:io_out[18] *144:7 10.8613 
2 *144:7 *144:9 84.255 
3 *144:9 *144:15 1.53327 
4 *144:15 *144:17 135.267 
5 *144:17 io_out[18] 2.36453 
*END

*D_NET *145 0.144981
*CONN
*P io_out[19] O
*I *664:io_out[19] O *D signal_generator
*CAP
1 io_out[19] 0.000695927
2 *664:io_out[19] 0.00395188
3 *145:17 0.02948
4 *145:15 0.0291736
5 *145:9 0.00512334
6 *145:7 0.00868573
7 *145:9 io_out[21] 0.00289549
8 *145:15 io_out[21] 0
9 io_oeb[19] io_out[19] 0
10 io_oeb[21] *145:15 1.24541e-05
11 *64:11 io_out[19] 0
12 *120:9 *145:17 0.000178055
13 *143:9 *145:9 0.00410947
14 *144:9 *145:9 0.00133844
15 *144:17 *145:17 0.0593365
*RES
1 *664:io_out[19] *145:7 10.6865 
2 *145:7 *145:9 113.325 
3 *145:9 *145:15 1.8246 
4 *145:15 *145:17 108.738 
5 *145:17 io_out[19] 2.14033 
*END

*D_NET *146 0.234329
*CONN
*P io_out[1] O
*I *664:io_out[1] O *D signal_generator
*CAP
1 io_out[1] 0.000153848
2 *664:io_out[1] 0.00312502
3 *146:13 0.105767
4 *146:11 0.108738
5 *146:11 *154:11 0
6 io_oeb[1] io_out[1] 0
7 io_oeb[1] *146:13 0
8 *65:7 io_out[1] 0
9 *65:9 io_out[1] 0
10 *65:9 *146:13 0
11 *108:11 *146:11 0.00716538
12 *119:11 *146:11 0.00865948
13 *119:13 *146:13 0
14 *128:9 *146:11 0.000287211
15 *129:21 *146:11 0.000432447
*RES
1 *664:io_out[1] *146:11 19.5453 
2 *146:11 *146:13 278.786 
3 *146:13 io_out[1] 0.457267 
*END

*D_NET *147 0.157418
*CONN
*P io_out[20] O
*I *664:io_out[20] O *D signal_generator
*CAP
1 io_out[20] 0.000899778
2 *664:io_out[20] 0.00404925
3 *147:9 0.0222799
4 *147:7 0.0254294
5 *147:9 io_out[21] 0.0141573
6 io_oeb[20] io_out[20] 0
7 *66:13 io_out[20] 0
8 *116:9 *147:9 0
9 *120:9 *147:9 0.05811
10 *140:9 *147:9 0.00605582
11 *141:9 *147:9 0
12 *142:9 *147:9 0.018683
13 *142:15 io_out[20] 3.5069e-05
14 *142:17 *147:9 0.000125565
15 *143:9 *147:9 0.00684176
16 *143:17 *147:9 0.000678746
17 *144:17 *147:9 7.27106e-05
*RES
1 *664:io_out[20] *147:7 11.007 
2 *147:7 *147:9 106.24 
3 *147:9 io_out[20] 2.70147 
*END

*D_NET *148 0.0497196
*CONN
*P io_out[21] O
*I *664:io_out[21] O *D signal_generator
*CAP
1 io_out[21] 0.0122414
2 *664:io_out[21] 0.0122414
3 io_out[21] io_out[22] 0.0020594
4 io_oeb[21] io_out[21] 0
5 *664:io_in[21] io_out[21] 0
6 *66:15 io_out[21] 0
7 *116:9 io_out[21] 0
8 *120:9 io_out[21] 0.000566964
9 *121:15 io_out[21] 0.000716188
10 *142:9 io_out[21] 0.000271736
11 *143:9 io_out[21] 0.000967503
12 *144:9 io_out[21] 0.00327558
13 *144:15 io_out[21] 0.000326639
14 *145:9 io_out[21] 0.00289549
15 *145:15 io_out[21] 0
16 *147:9 io_out[21] 0.0141573
*RES
1 *664:io_out[21] io_out[21] 44.8343 
*END

*D_NET *149 0.020351
*CONN
*P io_out[22] O
*I *664:io_out[22] O *D signal_generator
*CAP
1 io_out[22] 0.0065389
2 *664:io_out[22] 0.0065389
3 io_oeb[21] io_out[22] 4.14798e-05
4 io_oeb[22] io_out[22] 0.00476157
5 io_out[21] io_out[22] 0.0020594
6 *664:io_in[22] io_out[22] 0
7 *120:7 io_out[22] 0.000101435
8 *121:15 io_out[22] 0.000309295
*RES
1 *664:io_out[22] io_out[22] 23.1882 
*END

*D_NET *150 0.018669
*CONN
*P io_out[23] O
*I *664:io_out[23] O *D signal_generator
*CAP
1 io_out[23] 0.00933452
2 *664:io_out[23] 0.00933452
3 io_oeb[23] io_out[23] 0
4 *664:io_in[23] io_out[23] 0
5 *664:io_in[24] io_out[23] 0
*RES
1 *664:io_out[23] io_out[23] 25.776 
*END

*D_NET *151 0.0292103
*CONN
*P io_out[24] O
*I *664:io_out[24] O *D signal_generator
*CAP
1 io_out[24] 0.00398438
2 *664:io_out[24] 0.00070021
3 *151:9 0.00835513
4 *151:7 0.00507096
5 io_out[24] *664:wbs_adr_i[0] 0.000910394
6 *151:9 *152:9 0.00736728
7 *151:9 *583:5 0.00171729
8 io_oeb[24] io_out[24] 0
9 *664:io_in[24] io_out[24] 0
10 *124:9 *151:9 0.00110469
*RES
1 *664:io_out[24] *151:7 2.3544 
2 *151:7 *151:9 118.935 
3 *151:9 io_out[24] 11.273 
*END

*D_NET *152 0.0318672
*CONN
*P io_out[25] O
*I *664:io_out[25] O *D signal_generator
*CAP
1 io_out[25] 0.00441873
2 *664:io_out[25] 0.000653754
3 *152:9 0.00618321
4 *152:7 0.00241823
5 *152:9 *583:5 0.000869033
6 io_oeb[23] *152:9 0.000117824
7 io_oeb[25] io_out[25] 0
8 *664:io_in[23] *152:7 0.000115273
9 *664:io_in[25] io_out[25] 0
10 *664:io_in[26] *152:9 0.0010194
11 *124:9 *152:9 0.00802425
12 *125:9 *152:9 0.000680208
13 *151:9 *152:9 0.00736728
*RES
1 *664:io_out[25] *152:7 2.29613 
2 *152:7 *152:9 103.125 
3 *152:9 io_out[25] 11.311 
*END

*D_NET *153 0.0221862
*CONN
*P io_out[26] O
*I *664:io_out[26] O *D signal_generator
*CAP
1 io_out[26] 0.0107758
2 *664:io_out[26] 0.0107758
3 io_out[26] *559:15 0.00063459
4 io_oeb[26] io_out[26] 0
5 *664:io_in[24] io_out[26] 0
6 *664:io_in[26] io_out[26] 0
*RES
1 *664:io_out[26] io_out[26] 28.3917 
*END

*D_NET *154 0.227107
*CONN
*P io_out[2] O
*I *664:io_out[2] O *D signal_generator
*CAP
1 io_out[2] 0.0001609
2 *664:io_out[2] 0.00808333
3 *154:13 0.10547
4 *154:11 0.113393
5 io_oeb[2] io_out[2] 0
6 io_oeb[2] *154:13 0
7 *73:7 io_out[2] 0
8 *73:9 io_out[2] 0
9 *73:9 *154:13 0
10 *108:11 *154:11 0
11 *119:11 *154:11 0
12 *127:15 *154:11 0
13 *127:21 *154:13 0
14 *135:11 *154:11 0
15 *146:11 *154:11 0
*RES
1 *664:io_out[2] *154:11 22.5143 
2 *154:11 *154:13 277.97 
3 *154:13 io_out[2] 0.477533 
*END

*D_NET *155 0.239931
*CONN
*P io_out[3] O
*I *664:io_out[3] O *D signal_generator
*CAP
1 io_out[3] 0.000143046
2 *664:io_out[3] 0.00468873
3 *155:25 0.109273
4 *155:23 0.110745
5 *155:19 0.00630375
6 *155:19 *157:11 0
7 *664:io_in[5] *155:19 0
8 *74:7 io_out[3] 0
9 *74:9 io_out[3] 0
10 *74:9 *155:25 0
11 *108:11 *155:19 6.71272e-05
12 *108:11 *155:23 0.00181289
13 *127:15 *155:19 0.00321203
14 *127:19 *155:23 0.00314365
15 *128:13 *155:25 0
16 *129:21 *155:23 0.000521991
17 *130:11 *155:19 1.95933e-05
*RES
1 *664:io_out[3] *155:19 17.0901 
2 *155:19 *155:23 45.995 
3 *155:23 *155:25 278.582 
4 *155:25 io_out[3] 0.411667 
*END

*D_NET *156 0.235635
*CONN
*P io_out[4] O
*I *664:io_out[4] O *D signal_generator
*CAP
1 io_out[4] 0.000149358
2 *664:io_out[4] 0.0105516
3 *156:13 0.107088
4 *156:11 0.117491
5 io_oeb[4] io_out[4] 0
6 io_oeb[4] *156:13 0
7 *664:io_in[0] *156:11 0.000355479
8 *664:io_in[3] *156:11 0
9 *75:9 *156:13 0
10 *129:25 *156:13 0
*RES
1 *664:io_out[4] *156:11 28.6551 
2 *156:11 *156:13 276.222 
3 *156:13 io_out[4] 0.431933 
*END

*D_NET *157 0.227551
*CONN
*P io_out[5] O
*I *664:io_out[5] O *D signal_generator
*CAP
1 io_out[5] 0.000158696
2 *664:io_out[5] 0.00236777
3 *157:13 0.105773
4 *157:11 0.107982
5 io_oeb[5] io_out[5] 0
6 io_oeb[5] *157:13 0
7 *664:io_in[3] *157:13 0
8 *664:io_in[5] *157:11 0.00534304
9 *76:7 io_out[5] 0
10 *76:9 io_out[5] 0
11 *76:9 *157:13 0
12 *130:11 *157:11 0.00592575
13 *130:13 *157:13 0
14 *155:19 *157:11 0
*RES
1 *664:io_out[5] *157:11 14.4634 
2 *157:11 *157:13 278.786 
3 *157:13 io_out[5] 0.4712 
*END

*D_NET *158 0.235908
*CONN
*P io_out[6] O
*I *664:io_out[6] O *D signal_generator
*CAP
1 io_out[6] 0.000153601
2 *664:io_out[6] 0.00490725
3 *158:13 0.112862
4 *158:11 0.117615
5 *158:11 *160:9 0.000369806
6 io_oeb[6] *158:13 0
7 *77:15 io_out[6] 0
8 *77:15 *158:13 0
9 *133:7 *158:13 0
*RES
1 *664:io_out[6] *158:11 14.3469 
2 *158:11 *158:13 278.902 
3 *158:13 io_out[6] 0.439533 
*END

*D_NET *159 0.315678
*CONN
*P io_out[7] O
*I *664:io_out[7] O *D signal_generator
*CAP
1 io_out[7] 0.000164565
2 *664:io_out[7] 0.0026328
3 *159:13 0.110814
4 *159:11 0.110649
5 *159:9 0.0443924
6 *159:7 0.0470252
7 *159:9 *161:9 0
8 io_oeb[7] *159:13 0
9 *78:11 io_out[7] 0
10 *78:11 *159:13 0
*RES
1 *664:io_out[7] *159:7 7.511 
2 *159:7 *159:9 120.452 
3 *159:9 *159:11 0.5 
4 *159:11 *159:13 273.658 
5 *159:13 io_out[7] 0.466133 
*END

*D_NET *160 0.355731
*CONN
*P io_out[8] O
*I *664:io_out[8] O *D signal_generator
*CAP
1 io_out[8] 0.000142306
2 *664:io_out[8] 0.000729196
3 *160:13 0.1059
4 *160:11 0.105757
5 *160:9 0.0360686
6 *160:7 0.0367978
7 io_oeb[8] io_out[8] 0
8 io_oeb[8] *160:13 0
9 *79:11 *160:13 0
10 *110:9 *160:9 0
11 *112:9 *160:9 0
12 *133:9 *160:9 0
13 *133:13 *160:13 0
14 *137:9 *160:9 0.0699666
15 *158:11 *160:9 0.000369806
*RES
1 *664:io_out[8] *160:7 2.50007 
2 *160:7 *160:9 143.364 
3 *160:9 *160:11 0.5 
4 *160:11 *160:13 278.669 
5 *160:13 io_out[8] 0.411667 
*END

*D_NET *161 0.349292
*CONN
*P io_out[9] O
*I *664:io_out[9] O *D signal_generator
*CAP
1 io_out[9] 0.00016544
2 *664:io_out[9] 0.00299716
3 *161:13 0.110417
4 *161:11 0.110252
5 *161:9 0.0612314
6 *161:7 0.0642285
7 io_oeb[9] *161:13 0
8 *80:11 *161:13 0
9 *159:9 *161:9 0
*RES
1 *664:io_out[9] *161:7 8.44327 
2 *161:7 *161:9 166.878 
3 *161:9 *161:11 0.5 
4 *161:11 *161:13 272.726 
5 *161:13 io_out[9] 0.453467 
*END

*D_NET *558 0.0200622
*CONN
*P wb_clk_i I
*I *664:wb_clk_i I *D signal_generator
*CAP
1 wb_clk_i 0.00645521
2 *664:wb_clk_i 7.20231e-05
3 *558:13 0.00244042
4 *558:11 0.0088236
5 *664:wb_clk_i *559:21 0
6 *558:13 *559:21 0
7 *558:13 *586:5 0.00227094
8 *664:io_in[26] *558:11 0
*RES
1 wb_clk_i *558:11 31.4966 
2 *558:11 *558:13 56.205 
3 *558:13 *664:wb_clk_i 1.35 
*END

*D_NET *559 0.0231842
*CONN
*P wb_rst_i I
*I *664:wb_rst_i I *D signal_generator
*CAP
1 wb_rst_i 0.00253811
2 *664:wb_rst_i 5.03993e-05
3 *559:21 0.00571954
4 *559:15 0.00820725
5 *559:15 *560:23 0.000249992
6 *559:21 *619:7 2.89126e-05
7 *559:21 *626:13 0.00462198
8 io_oeb[24] *559:21 0.00101472
9 io_out[26] *559:15 0.00063459
10 *664:io_in[26] *559:15 0.000118665
11 *664:wb_clk_i *559:21 0
12 *558:13 *559:21 0
*RES
1 wb_rst_i *559:15 40.5426 
2 *559:15 *559:21 49.089 
3 *559:21 *664:wb_rst_i 0.915 
*END

*D_NET *560 0.0232884
*CONN
*P wbs_ack_o O
*I *664:wbs_ack_o O *D signal_generator
*CAP
1 wbs_ack_o 0.000698941
2 *664:wbs_ack_o 0.00496965
3 *560:23 0.0027971
4 *560:15 0.00706781
5 *560:15 *664:wbs_dat_i[1] 0.00457992
6 *560:15 *593:19 0
7 *560:15 *663:9 0
8 *560:23 *593:11 0.000330938
9 *560:23 *593:15 0.00211301
10 *664:io_in[24] *560:23 0.000185727
11 *664:io_in[26] *560:23 0.000295284
12 *559:15 *560:23 0.000249992
*RES
1 *664:wbs_ack_o *560:15 29.5773 
2 *560:15 *560:23 48.2083 
3 *560:23 wbs_ack_o 12.2925 
*END

*D_NET *561 0.0219099
*CONN
*P wbs_adr_i[0] I
*I *664:wbs_adr_i[0] I *D signal_generator
*CAP
1 wbs_adr_i[0] 0.00266837
2 *664:wbs_adr_i[0] 0.0037727
3 *561:7 0.00644107
4 *664:wbs_adr_i[0] *594:19 0.0063687
5 *664:wbs_adr_i[0] *616:11 0
6 *664:wbs_adr_i[0] *661:5 0.00149097
7 io_out[24] *664:wbs_adr_i[0] 0.000910394
8 *664:io_in[25] *561:7 0.000257697
*RES
1 wbs_adr_i[0] *561:7 47.9825 
2 *561:7 *664:wbs_adr_i[0] 38.5169 
*END

*D_NET *562 0.0173626
*CONN
*P wbs_adr_i[10] I
*I *664:wbs_adr_i[10] I *D signal_generator
*CAP
1 wbs_adr_i[10] 0.00245101
2 *664:wbs_adr_i[10] 0.0037838
3 *562:7 0.00623482
4 *664:wbs_adr_i[10] *568:11 0
5 *664:wbs_adr_i[10] *616:11 0.00489298
6 *664:wbs_adr_i[10] *619:11 0
7 *562:7 *573:13 0
*RES
1 wbs_adr_i[10] *562:7 42.8825 
2 *562:7 *664:wbs_adr_i[10] 39.8763 
*END

*D_NET *563 0.0193378
*CONN
*P wbs_adr_i[11] I
*I *664:wbs_adr_i[11] I *D signal_generator
*CAP
1 wbs_adr_i[11] 0.0034042
2 *664:wbs_adr_i[11] 0.00331707
3 *563:5 0.00672127
4 *664:wbs_adr_i[11] *664:wbs_adr_i[18] 0
5 *664:wbs_adr_i[11] *664:wbs_dat_i[1] 0.00589525
6 *664:wbs_adr_i[11] *664:wbs_dat_i[5] 0
7 *563:5 *576:13 0
8 *563:5 *577:13 0
*RES
1 wbs_adr_i[11] *563:5 58.1925 
2 *563:5 *664:wbs_adr_i[11] 26.0813 
*END

*D_NET *564 0.0191934
*CONN
*P wbs_adr_i[12] I
*I *664:wbs_adr_i[12] I *D signal_generator
*CAP
1 wbs_adr_i[12] 0.00448097
2 *664:wbs_adr_i[12] 5.6738e-05
3 *564:15 0.002902
4 *564:11 0.00732623
5 *564:11 *573:11 0.000377609
6 *564:11 *578:11 0
7 *564:11 *580:13 0.000247758
8 *564:11 *595:11 0.00243954
9 *564:11 *620:11 0
10 *564:11 *623:11 0.00136252
*RES
1 wbs_adr_i[12] *564:11 34.922 
2 *564:11 *564:15 49.8525 
3 *564:15 *664:wbs_adr_i[12] 1.0725 
*END

*D_NET *565 0.0227904
*CONN
*P wbs_adr_i[13] I
*I *664:wbs_adr_i[13] I *D signal_generator
*CAP
1 wbs_adr_i[13] 0.00491785
2 *664:wbs_adr_i[13] 0.00173221
3 *565:13 0.00665007
4 *664:wbs_adr_i[13] wbs_dat_o[7] 0.00292077
5 *565:13 wbs_dat_o[12] 0
6 *565:13 *566:11 0
7 *565:13 *575:11 0.00364463
8 *565:13 *582:13 0
9 *565:13 *584:13 0.000526757
10 *565:13 *597:11 0
11 *565:13 *620:11 0
12 *565:13 *622:11 0.00239811
*RES
1 wbs_adr_i[13] *565:13 46.0721 
2 *565:13 *664:wbs_adr_i[13] 42.255 
*END

*D_NET *566 0.0260097
*CONN
*P wbs_adr_i[14] I
*I *664:wbs_adr_i[14] I *D signal_generator
*CAP
1 wbs_adr_i[14] 0.00459688
2 *664:wbs_adr_i[14] 0.00262365
3 *566:11 0.00722053
4 *566:11 *597:11 0.0025295
5 *566:11 *620:11 0.00903915
6 *565:13 *566:11 0
*RES
1 wbs_adr_i[14] *566:11 43.1101 
2 *566:11 *664:wbs_adr_i[14] 45.825 
*END

*D_NET *567 0.0258372
*CONN
*P wbs_adr_i[15] I
*I *664:wbs_adr_i[15] I *D signal_generator
*CAP
1 wbs_adr_i[15] 0.00260858
2 *664:wbs_adr_i[15] 0.00545916
3 *567:7 0.00806775
4 *664:wbs_adr_i[15] *574:11 0.00727563
5 *664:wbs_adr_i[15] *585:11 0
6 *664:wbs_adr_i[15] *592:9 0.00101227
7 *664:wbs_adr_i[15] *594:19 0
8 *664:wbs_adr_i[15] *616:11 0.00100997
9 *664:wbs_adr_i[15] *624:7 0.000403829
10 *567:7 *664:wbs_dat_i[3] 0
11 *567:7 *664:wbs_dat_i[4] 0
*RES
1 wbs_adr_i[15] *567:7 44.4125 
2 *567:7 *664:wbs_adr_i[15] 46.2193 
*END

*D_NET *568 0.0277986
*CONN
*P wbs_adr_i[16] I
*I *664:wbs_adr_i[16] I *D signal_generator
*CAP
1 wbs_adr_i[16] 0.00230385
2 *664:wbs_adr_i[16] 0.00204964
3 *568:11 0.00656365
4 *568:7 0.00681787
5 *568:7 *664:wbs_dat_i[6] 0
6 *568:7 *623:13 0
7 *568:11 *579:11 0.000922831
8 *568:11 *616:11 0
9 *568:11 *619:11 0.0091408
10 *568:11 *628:17 0
11 *664:wbs_adr_i[10] *568:11 0
*RES
1 wbs_adr_i[16] *568:7 39.3125 
2 *568:7 *568:11 17.0857 
3 *568:11 *664:wbs_adr_i[16] 35.625 
*END

*D_NET *569 0.0296932
*CONN
*P wbs_adr_i[17] I
*I *664:wbs_adr_i[17] I *D signal_generator
*CAP
1 wbs_adr_i[17] 0.00243244
2 *664:wbs_adr_i[17] 0.00584558
3 *569:7 0.00827803
4 *664:wbs_adr_i[17] *664:wbs_dat_i[8] 0.0113257
5 *664:wbs_adr_i[17] *593:19 0
6 *664:wbs_adr_i[17] *627:15 0
7 *664:wbs_adr_i[17] *631:15 0.000513919
8 *569:7 *595:13 0.00129752
*RES
1 wbs_adr_i[17] *569:7 49.5125 
2 *569:7 *664:wbs_adr_i[17] 44.0257 
*END

*D_NET *570 0.0346802
*CONN
*P wbs_adr_i[18] I
*I *664:wbs_adr_i[18] I *D signal_generator
*CAP
1 wbs_adr_i[18] 0.00319351
2 *664:wbs_adr_i[18] 0.00506953
3 *570:5 0.00826303
4 *664:wbs_adr_i[18] *664:wbs_dat_i[13] 0.00682069
5 *664:wbs_adr_i[18] *664:wbs_dat_i[15] 0.00202277
6 *664:wbs_adr_i[18] *664:wbs_dat_i[1] 0
7 *664:wbs_adr_i[18] *664:wbs_dat_i[5] 0.00913987
8 *664:wbs_adr_i[18] *625:5 0.000170841
9 *664:wbs_adr_i[11] *664:wbs_adr_i[18] 0
*RES
1 wbs_adr_i[18] *570:5 54.6225 
2 *570:5 *664:wbs_adr_i[18] 40.4889 
*END

*D_NET *571 0.040577
*CONN
*P wbs_adr_i[19] I
*I *664:wbs_adr_i[19] I *D signal_generator
*CAP
1 wbs_adr_i[19] 0.00345677
2 *664:wbs_adr_i[19] 0.00324243
3 *571:5 0.0066992
4 *664:wbs_adr_i[19] wbs_dat_o[9] 0
5 *664:wbs_adr_i[19] *664:wbs_dat_i[14] 0.00602538
6 *664:wbs_adr_i[19] *664:wbs_dat_i[16] 0
7 *664:wbs_adr_i[19] *664:wbs_dat_i[17] 0.00250789
8 *664:wbs_adr_i[19] *664:wbs_dat_i[1] 0.00708542
9 *664:wbs_adr_i[19] *664:wbs_dat_i[9] 0.0108896
10 *664:wbs_adr_i[19] *625:5 0
11 *664:wbs_adr_i[19] *629:15 0.000670297
*RES
1 wbs_adr_i[19] *571:5 59.2125 
2 *571:5 *664:wbs_adr_i[19] 37.4138 
*END

*D_NET *572 0.0214889
*CONN
*P wbs_adr_i[1] I
*I *664:wbs_adr_i[1] I *D signal_generator
*CAP
1 wbs_adr_i[1] 0.00254529
2 *664:wbs_adr_i[1] 7.20231e-05
3 *572:13 0.00285125
4 *572:11 0.00532451
5 *664:wbs_adr_i[1] *664:wbs_adr_i[2] 0
6 *572:11 *648:23 0.000449932
7 *572:11 *658:15 0.000481352
8 *572:11 *660:11 0.00241668
9 *572:11 *662:15 0.00374592
10 *572:13 *664:wbs_adr_i[2] 0
11 *572:13 *587:11 0.0030382
12 *664:io_in[26] *572:11 0.000563726
*RES
1 wbs_adr_i[1] *572:11 21.2253 
2 *572:11 *572:13 61.815 
3 *572:13 *664:wbs_adr_i[1] 1.35 
*END

*D_NET *573 0.0409738
*CONN
*P wbs_adr_i[20] I
*I *664:wbs_adr_i[20] I *D signal_generator
*CAP
1 wbs_adr_i[20] 0.00533801
2 *664:wbs_adr_i[20] 7.20231e-05
3 *573:13 0.00302196
4 *573:11 0.00828796
5 *573:11 *576:11 0
6 *573:11 *595:11 0.00984143
7 *573:11 *606:9 0
8 *573:11 *623:11 0.00915105
9 *573:11 *630:15 0
10 *573:11 *633:15 0.00488374
11 *573:13 wbs_dat_o[9] 0
12 *562:7 *573:13 0
13 *564:11 *573:11 0.000377609
*RES
1 wbs_adr_i[20] *573:11 46.2545 
2 *573:11 *573:13 50.595 
3 *573:13 *664:wbs_adr_i[20] 1.35 
*END

*D_NET *574 0.0380759
*CONN
*P wbs_adr_i[21] I
*I *664:wbs_adr_i[21] I *D signal_generator
*CAP
1 wbs_adr_i[21] 0.00221317
2 *664:wbs_adr_i[21] 0.0018127
3 *574:11 0.00647876
4 *574:7 0.00687924
5 *574:7 *664:wbs_dat_i[23] 0.000658646
6 *574:7 *608:13 0
7 *574:7 *648:23 0.000293155
8 *574:11 *585:11 0
9 *574:11 *604:11 0.000234367
10 *574:11 *616:11 0.00660669
11 *574:11 *628:17 0.00562352
12 *664:wbs_adr_i[15] *574:11 0.00727563
*RES
1 wbs_adr_i[21] *574:7 43.9025 
2 *574:7 *574:11 24.8352 
3 *574:11 *664:wbs_adr_i[21] 31.035 
*END

*D_NET *575 0.0417894
*CONN
*P wbs_adr_i[22] I
*I *664:wbs_adr_i[22] I *D signal_generator
*CAP
1 wbs_adr_i[22] 0.00196376
2 *664:wbs_adr_i[22] 0.00250612
3 *575:11 0.00761231
4 *575:7 0.00706994
5 *664:wbs_adr_i[22] wbs_dat_o[10] 0
6 *575:11 *596:11 0.00137945
7 *575:11 *597:11 0
8 *575:11 *622:11 0.00805745
9 *575:11 *626:13 0
10 *575:11 *632:15 0.00955572
11 *565:13 *575:11 0.00364463
*RES
1 wbs_adr_i[22] *575:7 33.1925 
2 *575:7 *575:11 26.3501 
3 *575:11 *664:wbs_adr_i[22] 41.745 
*END

*D_NET *576 0.0420809
*CONN
*P wbs_adr_i[23] I
*I *664:wbs_adr_i[23] I *D signal_generator
*CAP
1 wbs_adr_i[23] 0.00592137
2 *664:wbs_adr_i[23] 7.20231e-05
3 *576:13 0.00322375
4 *576:11 0.0090731
5 *576:11 *577:11 0.0179702
6 *576:11 *608:11 0.00237327
7 *576:11 *623:11 0.00185637
8 *576:11 *633:15 0.00159078
9 *576:13 wbs_dat_o[10] 0
10 *563:5 *576:13 0
11 *573:11 *576:11 0
*RES
1 wbs_adr_i[23] *576:11 47.8558 
2 *576:11 *576:13 53.655 
3 *576:13 *664:wbs_adr_i[23] 1.35 
*END

*D_NET *577 0.0522013
*CONN
*P wbs_adr_i[24] I
*I *664:wbs_adr_i[24] I *D signal_generator
*CAP
1 wbs_adr_i[24] 0.00483334
2 *664:wbs_adr_i[24] 7.20231e-05
3 *577:13 0.00325379
4 *577:11 0.00801511
5 *577:11 *580:11 0.0180568
6 *577:11 *633:15 0
7 *577:11 *637:9 0
8 *577:13 *596:11 0
9 *563:5 *577:13 0
10 *576:11 *577:11 0.0179702
*RES
1 wbs_adr_i[24] *577:11 48.8608 
2 *577:11 *577:13 54.165 
3 *577:13 *664:wbs_adr_i[24] 1.35 
*END

*D_NET *578 0.0476272
*CONN
*P wbs_adr_i[25] I
*I *664:wbs_adr_i[25] I *D signal_generator
*CAP
1 wbs_adr_i[25] 0.00164568
2 *664:wbs_adr_i[25] 0.00281949
3 *578:11 0.0086541
4 *578:7 0.00748028
5 *664:wbs_adr_i[25] wbs_dat_o[11] 0
6 *664:wbs_adr_i[25] *596:11 0
7 *578:7 *651:9 0
8 *578:7 *652:9 0
9 *578:11 *595:11 0
10 *578:11 *597:11 0.00158848
11 *578:11 *607:11 0.000391943
12 *578:11 *618:11 0.00218288
13 *578:11 *620:11 0.00568843
14 *578:11 *630:15 0.0171759
15 *578:11 *632:15 0
16 *564:11 *578:11 0
*RES
1 wbs_adr_i[25] *578:7 28.0925 
2 *578:7 *578:11 31.0115 
3 *578:11 *664:wbs_adr_i[25] 46.845 
*END

*D_NET *579 0.0546336
*CONN
*P wbs_adr_i[26] I
*I *664:wbs_adr_i[26] I *D signal_generator
*CAP
1 wbs_adr_i[26] 0.0022161
2 *664:wbs_adr_i[26] 0.00208328
3 *579:11 0.00723375
4 *579:7 0.00736657
5 *664:wbs_adr_i[26] wbs_dat_o[11] 0.000158433
6 *579:7 *654:9 0
7 *579:11 *617:11 0
8 *579:11 *619:11 0.00460862
9 *579:11 *626:13 0.0178186
10 *579:11 *628:17 0
11 *579:11 *634:15 0.0122254
12 *568:11 *579:11 0.000922831
*RES
1 wbs_adr_i[26] *579:7 38.2925 
2 *579:7 *579:11 32.5264 
3 *579:11 *664:wbs_adr_i[26] 36.645 
*END

*D_NET *580 0.0580233
*CONN
*P wbs_adr_i[27] I
*I *664:wbs_adr_i[27] I *D signal_generator
*CAP
1 wbs_adr_i[27] 0.00110667
2 *664:wbs_adr_i[27] 7.20231e-05
3 *580:13 0.0032194
4 *580:11 0.00759175
5 *580:7 0.00555105
6 *580:7 *636:19 0
7 *580:11 *581:11 0.0221778
8 *580:11 *633:15 0
9 *564:11 *580:13 0.000247758
10 *577:11 *580:11 0.0180568
*RES
1 wbs_adr_i[27] *580:7 18.9125 
2 *580:7 *580:11 34.0996 
3 *580:11 *580:13 54.675 
4 *580:13 *664:wbs_adr_i[27] 1.35 
*END

*D_NET *581 0.0627901
*CONN
*P wbs_adr_i[28] I
*I *664:wbs_adr_i[28] I *D signal_generator
*CAP
1 wbs_adr_i[28] 0.0010736
2 *664:wbs_adr_i[28] 7.20231e-05
3 *581:13 0.00311395
4 *581:11 0.00706809
5 *581:7 0.00509976
6 *581:11 *582:11 0.0232095
7 *581:11 *633:15 0
8 *581:11 *652:23 0
9 *581:13 *597:11 0.000975392
10 *580:11 *581:11 0.0221778
*RES
1 wbs_adr_i[28] *581:7 18.4025 
2 *581:7 *581:11 35.6145 
3 *581:11 *581:13 55.185 
4 *581:13 *664:wbs_adr_i[28] 1.35 
*END

*D_NET *582 0.066525
*CONN
*P wbs_adr_i[29] I
*I *664:wbs_adr_i[29] I *D signal_generator
*CAP
1 wbs_adr_i[29] 0.00104497
2 *664:wbs_adr_i[29] 7.20231e-05
3 *582:13 0.00254324
4 *582:11 0.00663865
5 *582:7 0.00521241
6 *582:7 *639:23 0
7 *582:11 *584:11 0.024254
8 *582:11 *633:15 0
9 *582:13 wbs_dat_o[12] 0.00355022
10 *565:13 *582:13 0
11 *581:11 *582:11 0.0232095
*RES
1 wbs_adr_i[29] *582:7 17.8925 
2 *582:7 *582:11 37.1877 
3 *582:11 *582:13 55.695 
4 *582:13 *664:wbs_adr_i[29] 1.35 
*END

*D_NET *583 0.01614
*CONN
*P wbs_adr_i[2] I
*I *664:wbs_adr_i[2] I *D signal_generator
*CAP
1 wbs_adr_i[2] 0.00311109
2 *664:wbs_adr_i[2] 0.00225737
3 *583:5 0.00536846
4 *664:wbs_adr_i[2] *659:9 0.00199796
5 *664:wbs_adr_i[2] *661:9 0.000818757
6 *664:wbs_adr_i[1] *664:wbs_adr_i[2] 0
7 *125:9 *583:5 0
8 *151:9 *583:5 0.00171729
9 *152:9 *583:5 0.000869033
10 *572:13 *664:wbs_adr_i[2] 0
*RES
1 wbs_adr_i[2] *583:5 64.8225 
2 *583:5 *664:wbs_adr_i[2] 17.9341 
*END

*D_NET *584 0.0564038
*CONN
*P wbs_adr_i[30] I
*I *664:wbs_adr_i[30] I *D signal_generator
*CAP
1 wbs_adr_i[30] 0.000998624
2 *664:wbs_adr_i[30] 7.20231e-05
3 *584:13 0.00319296
4 *584:11 0.0119803
5 *584:7 0.00985797
6 *584:7 *636:9 0
7 *584:7 *638:9 0
8 *584:11 wbs_dat_o[24] 0
9 *584:11 wbs_dat_o[27] 0
10 *584:11 wbs_dat_o[28] 0
11 *584:11 *611:11 0.00552116
12 *584:11 *652:23 0
13 *565:13 *584:13 0.000526757
14 *582:11 *584:11 0.024254
*RES
1 wbs_adr_i[30] *584:7 17.3825 
2 *584:7 *584:11 38.7027 
3 *584:11 *584:13 56.205 
4 *584:13 *664:wbs_adr_i[30] 1.35 
*END

*D_NET *585 0.0529383
*CONN
*P wbs_adr_i[31] I
*I *664:wbs_adr_i[31] I *D signal_generator
*CAP
1 wbs_adr_i[31] 0.00209325
2 *664:wbs_adr_i[31] 0.00142947
3 *585:11 0.0119367
4 *585:7 0.0126005
5 *664:wbs_adr_i[31] *598:5 0.000661772
6 *585:7 *640:9 0
7 *585:7 *641:9 0.00176486
8 *585:11 *664:wbs_dat_i[26] 0
9 *585:11 *664:wbs_dat_i[8] 0.000634379
10 *585:11 *594:19 0.000981294
11 *585:11 *604:11 0.000231464
12 *585:11 *628:17 0
13 *585:11 *631:15 0.0206046
14 *664:wbs_adr_i[15] *585:11 0
15 *574:11 *585:11 0
*RES
1 wbs_adr_i[31] *585:7 47.9825 
2 *585:7 *585:11 40.2759 
3 *585:11 *664:wbs_adr_i[31] 26.955 
*END

*D_NET *586 0.0126808
*CONN
*P wbs_adr_i[3] I
*I *664:wbs_adr_i[3] I *D signal_generator
*CAP
1 wbs_adr_i[3] 0.00267073
2 *664:wbs_adr_i[3] 0.00180367
3 *586:5 0.0044744
4 *664:wbs_adr_i[3] *664:wbs_dat_i[1] 0.000612085
5 *664:wbs_adr_i[3] *663:9 0.000848953
6 *586:5 *662:15 0
7 *558:13 *586:5 0.00227094
*RES
1 wbs_adr_i[3] *586:5 61.2525 
2 *586:5 *664:wbs_adr_i[3] 19.2317 
*END

*D_NET *587 0.0116637
*CONN
*P wbs_adr_i[4] I
*I *664:wbs_adr_i[4] I *D signal_generator
*CAP
1 wbs_adr_i[4] 0.00237399
2 *664:wbs_adr_i[4] 0.00162763
3 *587:11 0.00400162
4 *664:wbs_adr_i[4] *664:wbs_adr_i[5] 0
5 *587:11 *594:19 0.000309874
6 *587:11 *616:11 0.000312338
7 *572:13 *587:11 0.0030382
*RES
1 wbs_adr_i[4] *587:11 48.5198 
2 *587:11 *664:wbs_adr_i[4] 28.995 
*END

*D_NET *588 0.00864268
*CONN
*P wbs_adr_i[5] I
*I *664:wbs_adr_i[5] I *D signal_generator
*CAP
1 wbs_adr_i[5] 0.00262376
2 *664:wbs_adr_i[5] 0.00169758
3 *588:7 0.00432134
4 *664:wbs_adr_i[5] *621:5 0
5 *664:wbs_adr_i[4] *664:wbs_adr_i[5] 0
*RES
1 wbs_adr_i[5] *588:7 46.5825 
2 *588:7 *664:wbs_adr_i[5] 30.27 
*END

*D_NET *589 0.00930234
*CONN
*P wbs_adr_i[6] I
*I *664:wbs_adr_i[6] I *D signal_generator
*CAP
1 wbs_adr_i[6] 0.00197417
2 *664:wbs_adr_i[6] 0.00251984
3 *589:11 0.00449401
4 *664:wbs_adr_i[6] wbs_dat_o[5] 0
5 *664:wbs_adr_i[6] *621:5 0
6 *589:11 *664:wbs_adr_i[8] 0
7 *589:11 *590:13 0
8 *589:11 *620:11 0.000314325
*RES
1 wbs_adr_i[6] *589:11 31.7193 
2 *589:11 *664:wbs_adr_i[6] 44.805 
*END

*D_NET *590 0.0115159
*CONN
*P wbs_adr_i[7] I
*I *664:wbs_adr_i[7] I *D signal_generator
*CAP
1 wbs_adr_i[7] 0.00147207
2 *664:wbs_adr_i[7] 7.20231e-05
3 *590:13 0.00341076
4 *590:11 0.0048108
5 *590:11 *652:23 0.00175027
6 *590:13 wbs_dat_o[5] 0
7 *589:11 *590:13 0
*RES
1 wbs_adr_i[7] *590:11 17.4825 
2 *590:11 *590:13 59.265 
3 *590:13 *664:wbs_adr_i[7] 1.35 
*END

*D_NET *591 0.0123284
*CONN
*P wbs_adr_i[8] I
*I *664:wbs_adr_i[8] I *D signal_generator
*CAP
1 wbs_adr_i[8] 0.00266021
2 *664:wbs_adr_i[8] 0.00267519
3 *591:11 0.0053354
4 *664:wbs_adr_i[8] *622:7 0
5 *591:11 *620:11 0.00165761
6 *591:11 *623:11 0
7 *589:11 *664:wbs_adr_i[8] 0
*RES
1 wbs_adr_i[8] *591:11 32.3157 
2 *591:11 *664:wbs_adr_i[8] 47.355 
*END

*D_NET *592 0.0158406
*CONN
*P wbs_adr_i[9] I
*I *664:wbs_adr_i[9] I *D signal_generator
*CAP
1 wbs_adr_i[9] 0.00373056
2 *664:wbs_adr_i[9] 0.00175331
3 *592:9 0.00548387
4 *592:9 *594:19 0
5 *592:9 *616:11 0.00386056
6 *664:wbs_adr_i[15] *592:9 0.00101227
*RES
1 wbs_adr_i[9] *592:9 49.6506 
2 *592:9 *664:wbs_adr_i[9] 31.535 
*END

*D_NET *593 0.0482464
*CONN
*P wbs_cyc_i I
*I *664:wbs_cyc_i I *D signal_generator
*CAP
1 wbs_cyc_i 0.000818272
2 *664:wbs_cyc_i 0.00122754
3 *593:19 0.0122155
4 *593:15 0.0126082
5 *593:11 0.00243854
6 *593:19 *664:wbs_dat_i[1] 0
7 *593:19 *664:wbs_dat_i[5] 0.0121247
8 *593:19 *664:wbs_dat_i[8] 0
9 *593:19 *627:15 0.00434855
10 *664:io_in[26] *593:11 2.11032e-05
11 *664:wbs_adr_i[17] *593:19 0
12 *560:15 *593:19 0
13 *560:23 *593:11 0.000330938
14 *560:23 *593:15 0.00211301
*RES
1 wbs_cyc_i *593:11 13.4032 
2 *593:11 *593:15 42.425 
3 *593:15 *593:19 35.7893 
4 *593:19 *664:wbs_cyc_i 20.835 
*END

*D_NET *594 0.0441626
*CONN
*P wbs_dat_i[0] I
*I *664:wbs_dat_i[0] I *D signal_generator
*CAP
1 wbs_dat_i[0] 0.00091052
2 *664:wbs_dat_i[0] 0.0015534
3 *594:19 0.0107284
4 *594:15 0.0112267
5 *594:11 0.00296225
6 *594:11 wbs_dat_o[0] 0.000138366
7 *594:11 *662:15 0.000331246
8 *594:15 wbs_dat_o[0] 1.75432e-05
9 *594:19 *664:wbs_dat_i[8] 0.00846257
10 *594:19 *616:11 0
11 *664:io_in[26] *594:11 0.000171799
12 *664:wbs_adr_i[0] *594:19 0.0063687
13 *664:wbs_adr_i[15] *594:19 0
14 *585:11 *594:19 0.000981294
15 *587:11 *594:19 0.000309874
16 *592:9 *594:19 0
*RES
1 wbs_dat_i[0] *594:11 13.7528 
2 *594:11 *594:15 36.815 
3 *594:15 *594:19 33.1091 
4 *594:19 *664:wbs_dat_i[0] 26.445 
*END

*D_NET *595 0.0283011
*CONN
*P wbs_dat_i[10] I
*I *664:wbs_dat_i[10] I *D signal_generator
*CAP
1 wbs_dat_i[10] 0.00482488
2 *664:wbs_dat_i[10] 7.20231e-05
3 *595:13 0.00253643
4 *595:11 0.00728929
5 *564:11 *595:11 0.00243954
6 *569:7 *595:13 0.00129752
7 *573:11 *595:11 0.00984143
8 *578:11 *595:11 0
*RES
1 wbs_dat_i[10] *595:11 39.0733 
2 *595:11 *595:13 50.085 
3 *595:13 *664:wbs_dat_i[10] 1.35 
*END

*D_NET *596 0.0246784
*CONN
*P wbs_dat_i[11] I
*I *664:wbs_dat_i[11] I *D signal_generator
*CAP
1 wbs_dat_i[11] 0.00524425
2 *664:wbs_dat_i[11] 0.00188896
3 *596:11 0.00713321
4 *664:wbs_dat_i[11] *602:5 0.00223643
5 *596:11 *622:11 0.00679612
6 *596:11 *626:13 0
7 *664:wbs_adr_i[25] *596:11 0
8 *575:11 *596:11 0.00137945
9 *577:13 *596:11 0
*RES
1 wbs_dat_i[11] *596:11 48.2684 
2 *596:11 *664:wbs_dat_i[11] 40.725 
*END

*D_NET *597 0.020984
*CONN
*P wbs_dat_i[12] I
*I *664:wbs_dat_i[12] I *D signal_generator
*CAP
1 wbs_dat_i[12] 0.00454645
2 *664:wbs_dat_i[12] 0.00246692
3 *597:11 0.00701337
4 *664:wbs_dat_i[12] wbs_dat_o[17] 0.00082166
5 *597:11 *620:11 0.0010422
6 *597:11 *632:15 0
7 *565:13 *597:11 0
8 *566:11 *597:11 0.0025295
9 *575:11 *597:11 0
10 *578:11 *597:11 0.00158848
11 *581:13 *597:11 0.000975392
*RES
1 wbs_dat_i[12] *597:11 42.0469 
2 *597:11 *664:wbs_dat_i[12] 45.87 
*END

*D_NET *598 0.0210644
*CONN
*P wbs_dat_i[13] I
*I *664:wbs_dat_i[13] I *D signal_generator
*CAP
1 wbs_dat_i[13] 0.00313313
2 *664:wbs_dat_i[13] 0.00365786
3 *598:5 0.00679099
4 *664:wbs_dat_i[13] *629:15 0
5 *664:wbs_adr_i[18] *664:wbs_dat_i[13] 0.00682069
6 *664:wbs_adr_i[31] *598:5 0.000661772
*RES
1 wbs_dat_i[13] *598:5 55.1325 
2 *598:5 *664:wbs_dat_i[13] 30.6095 
*END

*D_NET *599 0.0225463
*CONN
*P wbs_dat_i[14] I
*I *664:wbs_dat_i[14] I *D signal_generator
*CAP
1 wbs_dat_i[14] 0.00349019
2 *664:wbs_dat_i[14] 0.00175757
3 *599:5 0.00524776
4 *664:wbs_dat_i[14] *629:15 0.00602538
5 *599:5 *664:wbs_dat_i[2] 0
6 *664:wbs_adr_i[19] *664:wbs_dat_i[14] 0.00602538
*RES
1 wbs_dat_i[14] *599:5 58.7025 
2 *599:5 *664:wbs_dat_i[14] 25.6295 
*END

*D_NET *600 0.018435
*CONN
*P wbs_dat_i[15] I
*I *664:wbs_dat_i[15] I *D signal_generator
*CAP
1 wbs_dat_i[15] 0.00316383
2 *664:wbs_dat_i[15] 0.00247577
3 *600:5 0.0056396
4 *664:wbs_dat_i[15] *664:wbs_dat_i[16] 0
5 *664:wbs_dat_i[15] *664:wbs_dat_i[18] 6.25419e-05
6 *664:wbs_dat_i[15] *664:wbs_dat_i[5] 0.000253909
7 *664:wbs_dat_i[15] *603:5 0
8 *664:wbs_dat_i[15] *627:15 0.00481655
9 *600:5 *664:wbs_dat_i[4] 0
10 *664:wbs_adr_i[18] *664:wbs_dat_i[15] 0.00202277
*RES
1 wbs_dat_i[15] *600:5 53.6025 
2 *600:5 *664:wbs_dat_i[15] 29.2146 
*END

*D_NET *601 0.0154764
*CONN
*P wbs_dat_i[16] I
*I *664:wbs_dat_i[16] I *D signal_generator
*CAP
1 wbs_dat_i[16] 0.00348767
2 *664:wbs_dat_i[16] 0.00213185
3 *601:5 0.00561952
4 *664:wbs_dat_i[16] *664:wbs_dat_i[17] 0
5 *664:wbs_dat_i[16] *664:wbs_dat_i[9] 0
6 *664:wbs_dat_i[16] *663:9 0.00373739
7 *601:5 *664:wbs_dat_i[8] 0.000499969
8 *601:5 *623:13 0
9 *664:wbs_adr_i[19] *664:wbs_dat_i[16] 0
10 *664:wbs_dat_i[15] *664:wbs_dat_i[16] 0
*RES
1 wbs_dat_i[16] *601:5 62.7825 
2 *601:5 *664:wbs_dat_i[16] 19.1583 
*END

*D_NET *602 0.014986
*CONN
*P wbs_dat_i[17] I
*I *664:wbs_dat_i[17] I *D signal_generator
*CAP
1 wbs_dat_i[17] 0.00307759
2 *664:wbs_dat_i[17] 0.00196509
3 *602:5 0.00504268
4 *664:wbs_dat_i[17] *629:15 0.000156361
5 *664:wbs_dat_i[17] *663:9 0
6 *664:wbs_adr_i[19] *664:wbs_dat_i[17] 0.00250789
7 *664:wbs_dat_i[11] *602:5 0.00223643
8 *664:wbs_dat_i[16] *664:wbs_dat_i[17] 0
*RES
1 wbs_dat_i[17] *602:5 59.7225 
2 *602:5 *664:wbs_dat_i[17] 20.0065 
*END

*D_NET *603 0.0110707
*CONN
*P wbs_dat_i[18] I
*I *664:wbs_dat_i[18] I *D signal_generator
*CAP
1 wbs_dat_i[18] 0.00327742
2 *664:wbs_dat_i[18] 0.00195528
3 *603:5 0.00523269
4 *664:wbs_dat_i[18] *627:15 0
5 *664:wbs_dat_i[18] *629:15 0.000542804
6 *664:wbs_dat_i[15] *664:wbs_dat_i[18] 6.25419e-05
7 *664:wbs_dat_i[15] *603:5 0
*RES
1 wbs_dat_i[18] *603:5 56.1525 
2 *603:5 *664:wbs_dat_i[18] 22.0033 
*END

*D_NET *604 0.00972595
*CONN
*P wbs_dat_i[19] I
*I *664:wbs_dat_i[19] I *D signal_generator
*CAP
1 wbs_dat_i[19] 0.00297579
2 *664:wbs_dat_i[19] 0.00165427
3 *604:11 0.00463006
4 *604:11 *637:23 0
5 *574:11 *604:11 0.000234367
6 *585:11 *604:11 0.000231464
*RES
1 wbs_dat_i[19] *604:11 47.6458 
2 *604:11 *664:wbs_dat_i[19] 28.995 
*END

*D_NET *605 0.044986
*CONN
*P wbs_dat_i[1] I
*I *664:wbs_dat_i[1] I *D signal_generator
*CAP
1 wbs_dat_i[1] 0.003441
2 *664:wbs_dat_i[1] 0.00865268
3 *605:5 0.0120937
4 *664:wbs_dat_i[1] *664:wbs_dat_i[9] 0.000183057
5 *664:wbs_dat_i[1] *629:15 0.00244294
6 *664:wbs_dat_i[1] *663:9 0
7 *664:wbs_adr_i[11] *664:wbs_dat_i[1] 0.00589525
8 *664:wbs_adr_i[18] *664:wbs_dat_i[1] 0
9 *664:wbs_adr_i[19] *664:wbs_dat_i[1] 0.00708542
10 *664:wbs_adr_i[3] *664:wbs_dat_i[1] 0.000612085
11 *560:15 *664:wbs_dat_i[1] 0.00457992
12 *593:19 *664:wbs_dat_i[1] 0
*RES
1 wbs_dat_i[1] *605:5 58.7025 
2 *605:5 *664:wbs_dat_i[1] 48.0039 
*END

*D_NET *606 0.00891157
*CONN
*P wbs_dat_i[20] I
*I *664:wbs_dat_i[20] I *D signal_generator
*CAP
1 wbs_dat_i[20] 0.00162882
2 *664:wbs_dat_i[20] 0.00282697
3 *606:9 0.00445579
4 *573:11 *606:9 0
*RES
1 wbs_dat_i[20] *606:9 27.6675 
2 *606:9 *664:wbs_dat_i[20] 49.395 
*END

*D_NET *607 0.0105542
*CONN
*P wbs_dat_i[21] I
*I *664:wbs_dat_i[21] I *D signal_generator
*CAP
1 wbs_dat_i[21] 0.00217564
2 *664:wbs_dat_i[21] 0.00264801
3 *607:11 0.00482365
4 *607:11 *664:wbs_dat_i[23] 0
5 *607:11 *610:13 0.000233986
6 *607:11 *632:15 0.000280977
7 *578:11 *607:11 0.000391943
*RES
1 wbs_dat_i[21] *607:11 32.5933 
2 *607:11 *664:wbs_dat_i[21] 44.805 
*END

*D_NET *608 0.0129103
*CONN
*P wbs_dat_i[22] I
*I *664:wbs_dat_i[22] I *D signal_generator
*CAP
1 wbs_dat_i[22] 0.00177388
2 *664:wbs_dat_i[22] 7.20231e-05
3 *608:13 0.00312417
4 *608:11 0.00482602
5 *608:11 *633:15 0.000740892
6 *608:11 *652:19 0
7 *574:7 *608:13 0
8 *576:11 *608:11 0.00237327
*RES
1 wbs_dat_i[22] *608:11 24.4765 
2 *608:11 *608:13 53.145 
3 *608:13 *664:wbs_dat_i[22] 1.35 
*END

*D_NET *609 0.0132819
*CONN
*P wbs_dat_i[23] I
*I *664:wbs_dat_i[23] I *D signal_generator
*CAP
1 wbs_dat_i[23] 0.00294545
2 *664:wbs_dat_i[23] 0.00255209
3 *609:11 0.00549754
4 *609:11 *610:11 0.000754972
5 *609:11 *630:15 0.000873171
6 *574:7 *664:wbs_dat_i[23] 0.000658646
7 *607:11 *664:wbs_dat_i[23] 0
*RES
1 wbs_dat_i[23] *609:11 31.1497 
2 *609:11 *664:wbs_dat_i[23] 49.395 
*END

*D_NET *610 0.0162827
*CONN
*P wbs_dat_i[24] I
*I *664:wbs_dat_i[24] I *D signal_generator
*CAP
1 wbs_dat_i[24] 0.00295711
2 *664:wbs_dat_i[24] 7.20231e-05
3 *610:13 0.00284446
4 *610:11 0.00572955
5 *610:11 *613:11 0.00295133
6 *610:11 *630:15 0
7 *610:11 *633:15 0.00073927
8 *610:11 *637:9 0
9 *610:11 *648:9 0
10 *610:11 *656:19 0
11 *607:11 *610:13 0.000233986
12 *609:11 *610:11 0.000754972
*RES
1 wbs_dat_i[24] *610:11 30.6246 
2 *610:11 *610:13 50.085 
3 *610:13 *664:wbs_dat_i[24] 1.35 
*END

*D_NET *611 0.0186581
*CONN
*P wbs_dat_i[25] I
*I *664:wbs_dat_i[25] I *D signal_generator
*CAP
1 wbs_dat_i[25] 0.00303126
2 *664:wbs_dat_i[25] 7.44194e-05
3 *611:13 0.00346485
4 *611:11 0.0064217
5 *611:11 wbs_dat_o[18] 0.000144713
6 *611:11 wbs_dat_o[8] 0
7 *611:11 *652:9 0
8 *611:11 *652:23 0
9 *584:11 *611:11 0.00552116
*RES
1 wbs_dat_i[25] *611:11 25.5678 
2 *611:11 *611:13 56.715 
3 *611:13 *664:wbs_dat_i[25] 1.35 
*END

*D_NET *612 0.0201801
*CONN
*P wbs_dat_i[26] I
*I *664:wbs_dat_i[26] I *D signal_generator
*CAP
1 wbs_dat_i[26] 0.00198632
2 *664:wbs_dat_i[26] 0.00407828
3 *612:7 0.0060646
4 *664:wbs_dat_i[26] *628:17 0.00656915
5 *612:7 *656:9 0.00148177
6 *585:11 *664:wbs_dat_i[26] 0
*RES
1 wbs_dat_i[26] *612:7 43.3925 
2 *612:7 *664:wbs_dat_i[26] 41.7553 
*END

*D_NET *613 0.0235152
*CONN
*P wbs_dat_i[27] I
*I *664:wbs_dat_i[27] I *D signal_generator
*CAP
1 wbs_dat_i[27] 0.00360691
2 *664:wbs_dat_i[27] 7.20231e-05
3 *613:13 0.00297835
4 *613:11 0.00651324
5 *613:11 *633:15 0.00739339
6 *610:11 *613:11 0.00295133
*RES
1 wbs_dat_i[27] *613:11 34.776 
2 *613:11 *613:13 50.595 
3 *613:13 *664:wbs_dat_i[27] 1.35 
*END

*D_NET *614 0.0227811
*CONN
*P wbs_dat_i[28] I
*I *664:wbs_dat_i[28] I *D signal_generator
*CAP
1 wbs_dat_i[28] 0.00318896
2 *664:wbs_dat_i[28] 0.00420941
3 *614:5 0.00739837
4 *664:wbs_dat_i[28] *664:wbs_dat_i[29] 0
5 *664:wbs_dat_i[28] *629:15 0.00758457
6 *664:wbs_dat_i[28] *663:9 0
7 *614:5 *631:11 0.00039975
8 *614:5 *632:11 0
*RES
1 wbs_dat_i[28] *614:5 58.7025 
2 *614:5 *664:wbs_dat_i[28] 29.5334 
*END

*D_NET *615 0.0235704
*CONN
*P wbs_dat_i[29] I
*I *664:wbs_dat_i[29] I *D signal_generator
*CAP
1 wbs_dat_i[29] 0.00304899
2 *664:wbs_dat_i[29] 0.00574128
3 *615:5 0.00879027
4 *664:wbs_dat_i[29] *627:15 0.00598983
5 *664:wbs_dat_i[29] *629:15 0
6 *615:5 wbs_dat_o[22] 0
7 *615:5 *634:11 0
8 *615:5 *635:9 0
9 *664:wbs_dat_i[28] *664:wbs_dat_i[29] 0
*RES
1 wbs_dat_i[29] *615:5 53.6025 
2 *615:5 *664:wbs_dat_i[29] 36.2066 
*END

*D_NET *616 0.0433554
*CONN
*P wbs_dat_i[2] I
*I *664:wbs_dat_i[2] I *D signal_generator
*CAP
1 wbs_dat_i[2] 0.00240653
2 *664:wbs_dat_i[2] 0.00185372
3 *616:11 0.0085849
4 *616:7 0.00913771
5 *664:wbs_dat_i[2] wbs_dat_o[14] 0
6 *616:11 *619:11 0
7 *616:11 *628:17 0.00440283
8 io_oeb[26] *616:7 0.000287211
9 *664:wbs_adr_i[0] *616:11 0
10 *664:wbs_adr_i[10] *616:11 0.00489298
11 *664:wbs_adr_i[15] *616:11 0.00100997
12 *125:9 *616:7 0
13 *568:11 *616:11 0
14 *574:11 *616:11 0.00660669
15 *587:11 *616:11 0.000312338
16 *592:9 *616:11 0.00386056
17 *594:19 *616:11 0
18 *599:5 *664:wbs_dat_i[2] 0
*RES
1 wbs_dat_i[2] *616:7 43.3925 
2 *616:7 *616:11 29.4965 
3 *616:11 *664:wbs_dat_i[2] 31.545 
*END

*D_NET *617 0.0254159
*CONN
*P wbs_dat_i[30] I
*I *664:wbs_dat_i[30] I *D signal_generator
*CAP
1 wbs_dat_i[30] 0.00623513
2 *664:wbs_dat_i[30] 0.00239968
3 *617:11 0.0086348
4 *617:11 wbs_dat_o[23] 8.51932e-05
5 *617:11 *618:11 0
6 *617:11 *626:13 0
7 *617:11 *632:15 0.00806113
8 *617:11 *638:9 0
9 *617:11 *639:9 0
10 *617:11 *647:15 0
11 *579:11 *617:11 0
*RES
1 wbs_dat_i[30] *617:11 49.579 
2 *617:11 *664:wbs_dat_i[30] 41.745 
*END

*D_NET *618 0.0249913
*CONN
*P wbs_dat_i[31] I
*I *664:wbs_dat_i[31] I *D signal_generator
*CAP
1 wbs_dat_i[31] 0.00676279
2 *664:wbs_dat_i[31] 0.00266544
3 *618:11 0.00942823
4 *618:11 *630:15 0.002592
5 *618:11 *632:15 0
6 *618:11 *642:9 0.00135993
7 *578:11 *618:11 0.00218288
8 *617:11 *618:11 0
*RES
1 wbs_dat_i[31] *618:11 46.5622 
2 *618:11 *664:wbs_dat_i[31] 46.335 
*END

*D_NET *619 0.040836
*CONN
*P wbs_dat_i[3] I
*I *664:wbs_dat_i[3] I *D signal_generator
*CAP
1 wbs_dat_i[3] 0.00214112
2 *664:wbs_dat_i[3] 0.00212377
3 *619:11 0.00790149
4 *619:7 0.00791884
5 *664:wbs_dat_i[3] wbs_dat_o[14] 0
6 *619:7 *658:15 0
7 *619:11 *626:13 0.00697246
8 *664:wbs_adr_i[10] *619:11 0
9 *559:21 *619:7 2.89126e-05
10 *567:7 *664:wbs_dat_i[3] 0
11 *568:11 *619:11 0.0091408
12 *579:11 *619:11 0.00460862
13 *616:11 *619:11 0
*RES
1 wbs_dat_i[3] *619:7 38.8025 
2 *619:7 *619:11 27.1659 
3 *619:11 *664:wbs_dat_i[3] 36.135 
*END

*D_NET *620 0.0372912
*CONN
*P wbs_dat_i[4] I
*I *664:wbs_dat_i[4] I *D signal_generator
*CAP
1 wbs_dat_i[4] 0.00158109
2 *664:wbs_dat_i[4] 0.00271954
3 *620:11 0.00819364
4 *620:7 0.00705519
5 *620:11 *622:11 0
6 *564:11 *620:11 0
7 *565:13 *620:11 0
8 *566:11 *620:11 0.00903915
9 *567:7 *664:wbs_dat_i[4] 0
10 *578:11 *620:11 0.00568843
11 *589:11 *620:11 0.000314325
12 *591:11 *620:11 0.00165761
13 *597:11 *620:11 0.0010422
14 *600:5 *664:wbs_dat_i[4] 0
*RES
1 wbs_dat_i[4] *620:7 28.6025 
2 *620:7 *620:11 24.8935 
3 *620:11 *664:wbs_dat_i[4] 46.335 
*END

*D_NET *621 0.0398758
*CONN
*P wbs_dat_i[5] I
*I *664:wbs_dat_i[5] I *D signal_generator
*CAP
1 wbs_dat_i[5] 0.00305186
2 *664:wbs_dat_i[5] 0.00543809
3 *621:5 0.00848995
4 *664:wbs_dat_i[5] *627:15 0.00137739
5 *664:wbs_adr_i[11] *664:wbs_dat_i[5] 0
6 *664:wbs_adr_i[18] *664:wbs_dat_i[5] 0.00913987
7 *664:wbs_adr_i[5] *621:5 0
8 *664:wbs_adr_i[6] *621:5 0
9 *664:wbs_dat_i[15] *664:wbs_dat_i[5] 0.000253909
10 *593:19 *664:wbs_dat_i[5] 0.0121247
*RES
1 wbs_dat_i[5] *621:5 54.1125 
2 *621:5 *664:wbs_dat_i[5] 44.1453 
*END

*D_NET *622 0.0345853
*CONN
*P wbs_dat_i[6] I
*I *664:wbs_dat_i[6] I *D signal_generator
*CAP
1 wbs_dat_i[6] 0.00188631
2 *664:wbs_dat_i[6] 0.00241726
3 *622:11 0.0067805
4 *622:7 0.00624955
5 *622:11 *626:13 0
6 *664:wbs_adr_i[8] *622:7 0
7 *565:13 *622:11 0.00239811
8 *568:7 *664:wbs_dat_i[6] 0
9 *575:11 *622:11 0.00805745
10 *596:11 *622:11 0.00679612
11 *620:11 *622:11 0
*RES
1 wbs_dat_i[6] *622:7 33.7025 
2 *622:7 *622:11 21.7471 
3 *622:11 *664:wbs_dat_i[6] 41.235 
*END

*D_NET *623 0.030275
*CONN
*P wbs_dat_i[7] I
*I *664:wbs_dat_i[7] I *D signal_generator
*CAP
1 wbs_dat_i[7] 0.0058793
2 *664:wbs_dat_i[7] 7.20231e-05
3 *623:13 0.00307324
4 *623:11 0.00888051
5 *564:11 *623:11 0.00136252
6 *568:7 *623:13 0
7 *573:11 *623:11 0.00915105
8 *576:11 *623:11 0.00185637
9 *591:11 *623:11 0
10 *601:5 *623:13 0
*RES
1 wbs_dat_i[7] *623:11 42.7146 
2 *623:11 *623:13 51.105 
3 *623:13 *664:wbs_dat_i[7] 1.35 
*END

*D_NET *624 0.0364622
*CONN
*P wbs_dat_i[8] I
*I *664:wbs_dat_i[8] I *D signal_generator
*CAP
1 wbs_dat_i[8] 0.00278428
2 *664:wbs_dat_i[8] 0.00342404
3 *624:7 0.00620832
4 *664:wbs_dat_i[8] *631:15 0.00271918
5 *664:wbs_adr_i[15] *624:7 0.000403829
6 *664:wbs_adr_i[17] *664:wbs_dat_i[8] 0.0113257
7 *585:11 *664:wbs_dat_i[8] 0.000634379
8 *593:19 *664:wbs_dat_i[8] 0
9 *594:19 *664:wbs_dat_i[8] 0.00846257
10 *601:5 *664:wbs_dat_i[8] 0.000499969
*RES
1 wbs_dat_i[8] *624:7 49.0025 
2 *624:7 *664:wbs_dat_i[8] 44.6522 
*END

*D_NET *625 0.0279757
*CONN
*P wbs_dat_i[9] I
*I *664:wbs_dat_i[9] I *D signal_generator
*CAP
1 wbs_dat_i[9] 0.00349403
2 *664:wbs_dat_i[9] 0.00487207
3 *625:5 0.0083661
4 *664:wbs_dat_i[9] *663:9 0
5 *664:wbs_adr_i[18] *625:5 0.000170841
6 *664:wbs_adr_i[19] *664:wbs_dat_i[9] 0.0108896
7 *664:wbs_adr_i[19] *625:5 0
8 *664:wbs_dat_i[16] *664:wbs_dat_i[9] 0
9 *664:wbs_dat_i[1] *664:wbs_dat_i[9] 0.000183057
*RES
1 wbs_dat_i[9] *625:5 59.7225 
2 *625:5 *664:wbs_dat_i[9] 32.359 
*END

*D_NET *626 0.0685058
*CONN
*P wbs_dat_o[0] O
*I *664:wbs_dat_o[0] O *D signal_generator
*CAP
1 wbs_dat_o[0] 0.00229376
2 *664:wbs_dat_o[0] 0.00214039
3 *626:13 0.017021
4 *626:11 0.0168676
5 wbs_dat_o[0] *662:15 0.000222128
6 *626:13 *632:15 0
7 *664:io_in[26] wbs_dat_o[0] 0.000391981
8 *559:21 *626:13 0.00462198
9 *575:11 *626:13 0
10 *579:11 *626:13 0.0178186
11 *594:11 wbs_dat_o[0] 0.000138366
12 *594:15 wbs_dat_o[0] 1.75432e-05
13 *596:11 *626:13 0
14 *617:11 *626:13 0
15 *619:11 *626:13 0.00697246
16 *622:11 *626:13 0
*RES
1 *664:wbs_dat_o[0] *626:11 37.655 
2 *626:11 *626:13 54.1095 
3 *626:13 wbs_dat_o[0] 39.9743 
*END

*D_NET *627 0.0466877
*CONN
*P wbs_dat_o[10] O
*I *664:wbs_dat_o[10] O *D signal_generator
*CAP
1 wbs_dat_o[10] 0.00310639
2 *664:wbs_dat_o[10] 0.00120883
3 *627:15 0.0138688
4 *627:11 0.0119713
5 *627:11 *628:13 0
6 *627:15 *629:15 0
7 *627:15 *631:15 0
8 *664:wbs_adr_i[17] *627:15 0
9 *664:wbs_adr_i[22] wbs_dat_o[10] 0
10 *664:wbs_dat_i[15] *627:15 0.00481655
11 *664:wbs_dat_i[18] *627:15 0
12 *664:wbs_dat_i[29] *627:15 0.00598983
13 *664:wbs_dat_i[5] *627:15 0.00137739
14 *576:13 wbs_dat_o[10] 0
15 *593:19 *627:15 0.00434855
*RES
1 *664:wbs_dat_o[10] *627:11 21.845 
2 *627:11 *627:15 37.246 
3 *627:15 wbs_dat_o[10] 53.0925 
*END

*D_NET *628 0.0448742
*CONN
*P wbs_dat_o[11] O
*I *664:wbs_dat_o[11] O *D signal_generator
*CAP
1 wbs_dat_o[11] 0.00243263
2 *664:wbs_dat_o[11] 0.00185513
3 *628:17 0.012205
4 *628:13 0.0116275
5 *628:17 *634:15 0
6 *664:wbs_adr_i[25] wbs_dat_o[11] 0
7 *664:wbs_adr_i[26] wbs_dat_o[11] 0.000158433
8 *664:wbs_dat_i[26] *628:17 0.00656915
9 *568:11 *628:17 0
10 *574:11 *628:17 0.00562352
11 *579:11 *628:17 0
12 *585:11 *628:17 0
13 *616:11 *628:17 0.00440283
14 *627:11 *628:13 0
*RES
1 *664:wbs_dat_o[11] *628:13 33.35 
2 *628:13 *628:17 35.498 
3 *628:17 wbs_dat_o[11] 42.3825 
*END

*D_NET *629 0.0466232
*CONN
*P wbs_dat_o[12] O
*I *664:wbs_dat_o[12] O *D signal_generator
*CAP
1 wbs_dat_o[12] 0.00260484
2 *664:wbs_dat_o[12] 0.000947036
3 *629:15 0.0118783
4 *629:11 0.0102204
5 *629:15 *663:9 0
6 *664:wbs_adr_i[19] *629:15 0.000670297
7 *664:wbs_dat_i[13] *629:15 0
8 *664:wbs_dat_i[14] *629:15 0.00602538
9 *664:wbs_dat_i[17] *629:15 0.000156361
10 *664:wbs_dat_i[18] *629:15 0.000542804
11 *664:wbs_dat_i[1] *629:15 0.00244294
12 *664:wbs_dat_i[28] *629:15 0.00758457
13 *664:wbs_dat_i[29] *629:15 0
14 *565:13 wbs_dat_o[12] 0
15 *582:13 wbs_dat_o[12] 0.00355022
16 *627:15 *629:15 0
*RES
1 *664:wbs_dat_o[12] *629:11 16.745 
2 *629:11 *629:15 34.1579 
3 *629:15 wbs_dat_o[12] 58.1925 
*END

*D_NET *630 0.044995
*CONN
*P wbs_dat_o[13] O
*I *664:wbs_dat_o[13] O *D signal_generator
*CAP
1 wbs_dat_o[13] 0.0016044
2 *664:wbs_dat_o[13] 0.00266799
3 *630:15 0.00950894
4 *630:11 0.0105725
5 *630:15 *633:15 0
6 *573:11 *630:15 0
7 *578:11 *630:15 0.0171759
8 *609:11 *630:15 0.000873171
9 *610:11 *630:15 0
10 *618:11 *630:15 0.002592
*RES
1 *664:wbs_dat_o[13] *630:11 47.855 
2 *630:11 *630:15 32.5847 
3 *630:15 wbs_dat_o[13] 27.0825 
*END

*D_NET *631 0.0459218
*CONN
*P wbs_dat_o[14] O
*I *664:wbs_dat_o[14] O *D signal_generator
*CAP
1 wbs_dat_o[14] 0.00285104
2 *664:wbs_dat_o[14] 0.00131139
3 *631:15 0.00953079
4 *631:11 0.00799114
5 *664:wbs_adr_i[17] *631:15 0.000513919
6 *664:wbs_dat_i[2] wbs_dat_o[14] 0
7 *664:wbs_dat_i[3] wbs_dat_o[14] 0
8 *664:wbs_dat_i[8] *631:15 0.00271918
9 *585:11 *631:15 0.0206046
10 *614:5 *631:11 0.00039975
11 *627:15 *631:15 0
*RES
1 *664:wbs_dat_o[14] *631:11 26.945 
2 *631:11 *631:15 31.0697 
3 *631:15 wbs_dat_o[14] 47.9925 
*END

*D_NET *632 0.0412122
*CONN
*P wbs_dat_o[15] O
*I *664:wbs_dat_o[15] O *D signal_generator
*CAP
1 wbs_dat_o[15] 0.00190472
2 *664:wbs_dat_o[15] 0.00242238
3 *632:15 0.00923482
4 *632:11 0.00975248
5 *575:11 *632:15 0.00955572
6 *578:11 *632:15 0
7 *597:11 *632:15 0
8 *607:11 *632:15 0.000280977
9 *614:5 *632:11 0
10 *617:11 *632:15 0.00806113
11 *618:11 *632:15 0
12 *626:13 *632:15 0
*RES
1 *664:wbs_dat_o[15] *632:11 42.755 
2 *632:11 *632:15 29.4965 
3 *632:15 wbs_dat_o[15] 32.1825 
*END

*D_NET *633 0.0378221
*CONN
*P wbs_dat_o[16] O
*I *664:wbs_dat_o[16] O *D signal_generator
*CAP
1 wbs_dat_o[16] 0.00130662
2 *664:wbs_dat_o[16] 7.20231e-05
3 *633:15 0.00831083
4 *633:9 0.00985838
5 *633:7 0.0029262
6 *573:11 *633:15 0.00488374
7 *576:11 *633:15 0.00159078
8 *577:11 *633:15 0
9 *580:11 *633:15 0
10 *581:11 *633:15 0
11 *582:11 *633:15 0
12 *608:11 *633:15 0.000740892
13 *610:11 *633:15 0.00073927
14 *613:11 *633:15 0.00739339
15 *630:15 *633:15 0
*RES
1 *664:wbs_dat_o[16] *633:7 1.35 
2 *633:7 *633:9 51.105 
3 *633:9 *633:15 28.4233 
4 *633:15 wbs_dat_o[16] 21.9825 
*END

*D_NET *634 0.0371493
*CONN
*P wbs_dat_o[17] O
*I *664:wbs_dat_o[17] O *D signal_generator
*CAP
1 wbs_dat_o[17] 0.00206058
2 *664:wbs_dat_o[17] 0.00201189
3 *634:15 0.0100393
4 *634:11 0.00999056
5 *664:wbs_dat_i[12] wbs_dat_o[17] 0.00082166
6 *579:11 *634:15 0.0122254
7 *615:5 *634:11 0
8 *628:17 *634:15 0
*RES
1 *664:wbs_dat_o[17] *634:11 36.635 
2 *634:11 *634:15 26.4084 
3 *634:15 wbs_dat_o[17] 38.3025 
*END

*D_NET *635 0.047125
*CONN
*P wbs_dat_o[18] O
*I *664:wbs_dat_o[18] O *D signal_generator
*CAP
1 wbs_dat_o[18] 0.0030306
2 *664:wbs_dat_o[18] 7.20231e-05
3 *635:13 0.0039283
4 *635:11 0.000897695
5 *635:9 0.0033403
6 *635:7 0.00341232
7 wbs_dat_o[18] wbs_dat_o[23] 0.00242856
8 wbs_dat_o[18] wbs_dat_o[24] 0.000541445
9 wbs_dat_o[18] wbs_dat_o[6] 0.00727108
10 wbs_dat_o[18] wbs_dat_o[8] 0.00859865
11 wbs_dat_o[18] *639:23 2.5111e-05
12 wbs_dat_o[18] *652:9 0
13 wbs_dat_o[18] *660:15 4.55864e-06
14 wbs_dat_o[18] *662:17 0.000820276
15 *635:9 wbs_dat_o[29] 0
16 *635:13 wbs_dat_o[24] 0.000707181
17 *635:13 wbs_dat_o[27] 0.000304157
18 *635:13 *636:19 0.0038212
19 *635:13 *656:19 0.00154209
20 *635:13 *660:17 0.00602838
21 *635:13 *662:17 0.000206372
22 *611:11 wbs_dat_o[18] 0.000144713
23 *615:5 *635:9 0
*RES
1 *664:wbs_dat_o[18] *635:7 1.35 
2 *635:7 *635:9 59.6475 
3 *635:9 *635:11 2 
4 *635:11 *635:13 55.65 
5 *635:13 wbs_dat_o[18] 31.4993 
*END

*D_NET *636 0.0415446
*CONN
*P wbs_dat_o[19] O
*I *664:wbs_dat_o[19] O *D signal_generator
*CAP
1 wbs_dat_o[19] 0.00285901
2 *664:wbs_dat_o[19] 7.20231e-05
3 *636:19 0.00375854
4 *636:9 0.00428939
5 *636:7 0.00346189
6 wbs_dat_o[19] wbs_dat_o[20] 0.0013241
7 wbs_dat_o[19] wbs_dat_o[22] 0.0061667
8 wbs_dat_o[19] wbs_dat_o[6] 0.00160383
9 wbs_dat_o[19] *637:23 0
10 wbs_dat_o[19] *639:23 0.00761048
11 wbs_dat_o[19] *648:23 0.00195944
12 *636:9 wbs_dat_o[29] 0
13 *636:19 wbs_dat_o[22] 0.000307445
14 *636:19 wbs_dat_o[24] 0.000654451
15 *636:19 *638:19 0.00310833
16 *636:19 *660:17 8.05742e-05
17 *636:19 *662:17 0.000467224
18 *580:7 *636:19 0
19 *584:7 *636:9 0
20 *635:13 *636:19 0.0038212
*RES
1 *664:wbs_dat_o[19] *636:7 1.35 
2 *636:7 *636:9 59.9025 
3 *636:9 *636:19 46.9725 
4 *636:19 wbs_dat_o[19] 26.9304 
*END

*D_NET *637 0.0733023
*CONN
*P wbs_dat_o[1] O
*I *664:wbs_dat_o[1] O *D signal_generator
*CAP
1 wbs_dat_o[1] 0.000518909
2 *664:wbs_dat_o[1] 7.20231e-05
3 *637:23 0.012164
4 *637:13 0.012741
5 *637:11 0.00109591
6 *637:9 0.00347761
7 *637:7 0.00354964
8 *637:13 wbs_dat_o[8] 0.000109811
9 *637:13 *648:13 0.00464659
10 *637:13 *652:23 0.000709755
11 *637:13 *660:17 0.00681973
12 *637:13 *662:17 0.00067786
13 *637:23 *648:23 0.0256669
14 *637:23 *658:15 0.00105261
15 io_oeb[26] *637:23 0
16 wbs_dat_o[19] *637:23 0
17 *577:11 *637:9 0
18 *604:11 *637:23 0
19 *610:11 *637:9 0
*RES
1 *664:wbs_dat_o[1] *637:7 1.35 
2 *637:7 *637:9 59.6475 
3 *637:9 *637:11 2 
4 *637:11 *637:13 62.895 
5 *637:13 *637:23 49.5938 
6 *637:23 wbs_dat_o[1] 9.2325 
*END

*D_NET *638 0.033435
*CONN
*P wbs_dat_o[20] O
*I *664:wbs_dat_o[20] O *D signal_generator
*CAP
1 wbs_dat_o[20] 0.00484185
2 *664:wbs_dat_o[20] 7.20231e-05
3 *638:19 0.00566287
4 *638:9 0.00420034
5 *638:7 0.00345135
6 wbs_dat_o[20] wbs_dat_o[22] 0.00733762
7 wbs_dat_o[20] *648:23 0.000483647
8 *638:19 wbs_dat_o[22] 0.000260431
9 *638:19 wbs_dat_o[24] 0.000304157
10 *638:19 wbs_dat_o[27] 0.000314189
11 *638:19 *662:17 0.00207405
12 wbs_dat_o[19] wbs_dat_o[20] 0.0013241
13 *584:7 *638:9 0
14 *617:11 *638:9 0
15 *636:19 *638:19 0.00310833
*RES
1 *664:wbs_dat_o[20] *638:7 1.35 
2 *638:7 *638:9 60.1575 
3 *638:9 *638:19 41.1825 
4 *638:19 wbs_dat_o[20] 25.4442 
*END

*D_NET *639 0.0365265
*CONN
*P wbs_dat_o[21] O
*I *664:wbs_dat_o[21] O *D signal_generator
*CAP
1 wbs_dat_o[21] 0.000628474
2 *664:wbs_dat_o[21] 7.20231e-05
3 *639:23 0.00390732
4 *639:9 0.00654902
5 *639:7 0.0033422
6 *639:9 wbs_dat_o[30] 0
7 *639:23 wbs_dat_o[22] 0.00153227
8 *639:23 wbs_dat_o[23] 0.00751186
9 *639:23 wbs_dat_o[28] 0.000110612
10 *639:23 wbs_dat_o[6] 0.00287734
11 *639:23 *658:17 0.00235977
12 wbs_dat_o[18] *639:23 2.5111e-05
13 wbs_dat_o[19] *639:23 0.00761048
14 *582:7 *639:23 0
15 *617:11 *639:9 0
*RES
1 *664:wbs_dat_o[21] *639:7 1.35 
2 *639:7 *639:9 58.8825 
3 *639:9 *639:23 46.3906 
4 *639:23 wbs_dat_o[21] 10.7625 
*END

*D_NET *640 0.0336536
*CONN
*P wbs_dat_o[22] O
*I *664:wbs_dat_o[22] O *D signal_generator
*CAP
1 wbs_dat_o[22] 0.00388046
2 *664:wbs_dat_o[22] 7.44194e-05
3 *640:9 0.00660849
4 *640:7 0.00280246
5 wbs_dat_o[22] wbs_dat_o[23] 0.000979309
6 wbs_dat_o[22] wbs_dat_o[27] 0.000101386
7 wbs_dat_o[22] wbs_dat_o[29] 0.00010611
8 wbs_dat_o[22] *660:17 0.00164926
9 wbs_dat_o[22] *662:17 0.00011115
10 *640:9 wbs_dat_o[30] 0.0017361
11 wbs_dat_o[19] wbs_dat_o[22] 0.0061667
12 wbs_dat_o[20] wbs_dat_o[22] 0.00733762
13 *585:7 *640:9 0
14 *615:5 wbs_dat_o[22] 0
15 *636:19 wbs_dat_o[22] 0.000307445
16 *638:19 wbs_dat_o[22] 0.000260431
17 *639:23 wbs_dat_o[22] 0.00153227
*RES
1 *664:wbs_dat_o[22] *640:7 1.35 
2 *640:7 *640:9 59.6475 
3 *640:9 wbs_dat_o[22] 49.4252 
*END

*D_NET *641 0.0326676
*CONN
*P wbs_dat_o[23] O
*I *664:wbs_dat_o[23] O *D signal_generator
*CAP
1 wbs_dat_o[23] 0.00327505
2 *664:wbs_dat_o[23] 7.20231e-05
3 *641:9 0.00600512
4 *641:7 0.00280209
5 wbs_dat_o[23] wbs_dat_o[24] 0.000193593
6 wbs_dat_o[23] wbs_dat_o[25] 0.00688913
7 wbs_dat_o[23] *654:19 4.55864e-06
8 wbs_dat_o[23] *660:17 0.000260184
9 wbs_dat_o[23] *662:17 0.000396039
10 wbs_dat_o[18] wbs_dat_o[23] 0.00242856
11 wbs_dat_o[22] wbs_dat_o[23] 0.000979309
12 *585:7 *641:9 0.00176486
13 *617:11 wbs_dat_o[23] 8.51932e-05
14 *639:23 wbs_dat_o[23] 0.00751186
*RES
1 *664:wbs_dat_o[23] *641:7 1.35 
2 *641:7 *641:9 59.9025 
3 *641:9 wbs_dat_o[23] 42.4358 
*END

*D_NET *642 0.0354177
*CONN
*P wbs_dat_o[24] O
*I *664:wbs_dat_o[24] O *D signal_generator
*CAP
1 wbs_dat_o[24] 0.00513073
2 *664:wbs_dat_o[24] 7.20231e-05
3 *642:9 0.00818179
4 *642:7 0.00312308
5 wbs_dat_o[24] wbs_dat_o[25] 0.000801007
6 wbs_dat_o[24] wbs_dat_o[26] 0.00687082
7 wbs_dat_o[24] wbs_dat_o[27] 0.00540057
8 wbs_dat_o[24] *656:19 0.000331855
9 wbs_dat_o[24] *658:17 0.000279744
10 wbs_dat_o[24] *660:17 0.000368398
11 wbs_dat_o[24] *662:17 0.00109694
12 wbs_dat_o[18] wbs_dat_o[24] 0.000541445
13 wbs_dat_o[23] wbs_dat_o[24] 0.000193593
14 *584:11 wbs_dat_o[24] 0
15 *618:11 *642:9 0.00135993
16 *635:13 wbs_dat_o[24] 0.000707181
17 *636:19 wbs_dat_o[24] 0.000654451
18 *638:19 wbs_dat_o[24] 0.000304157
*RES
1 *664:wbs_dat_o[24] *642:7 1.35 
2 *642:7 *642:9 60.285 
3 *642:9 wbs_dat_o[24] 28.8733 
*END

*D_NET *643 0.0289337
*CONN
*P wbs_dat_o[25] O
*I *664:wbs_dat_o[25] O *D signal_generator
*CAP
1 wbs_dat_o[25] 0.00290715
2 *664:wbs_dat_o[25] 0.000813643
3 *643:15 0.00538999
4 *643:11 0.00329649
5 wbs_dat_o[25] wbs_dat_o[26] 0.00729285
6 *643:15 wbs_dat_o[31] 0.00154347
7 wbs_dat_o[23] wbs_dat_o[25] 0.00688913
8 wbs_dat_o[24] wbs_dat_o[25] 0.000801007
*RES
1 *664:wbs_dat_o[25] *643:11 14.01 
2 *643:11 *643:15 49.7 
3 *643:15 wbs_dat_o[25] 25.7218 
*END

*D_NET *644 0.0297378
*CONN
*P wbs_dat_o[26] O
*I *664:wbs_dat_o[26] O *D signal_generator
*CAP
1 wbs_dat_o[26] 0.00346322
2 *664:wbs_dat_o[26] 7.20231e-05
3 *644:9 0.00686289
4 *644:7 0.00347169
5 wbs_dat_o[26] wbs_dat_o[27] 0.000487643
6 wbs_dat_o[26] *662:17 0.00121663
7 wbs_dat_o[24] wbs_dat_o[26] 0.00687082
8 wbs_dat_o[25] wbs_dat_o[26] 0.00729285
*RES
1 *664:wbs_dat_o[26] *644:7 1.35 
2 *644:7 *644:9 60.795 
3 *644:9 wbs_dat_o[26] 25.2752 
*END

*D_NET *645 0.0261527
*CONN
*P wbs_dat_o[27] O
*I *664:wbs_dat_o[27] O *D signal_generator
*CAP
1 wbs_dat_o[27] 0.00318185
2 *664:wbs_dat_o[27] 7.20231e-05
3 *645:9 0.00651497
4 *645:7 0.00340515
5 wbs_dat_o[27] wbs_dat_o[28] 0.0053104
6 wbs_dat_o[27] *658:17 0.000306083
7 wbs_dat_o[27] *660:17 0.00075424
8 wbs_dat_o[22] wbs_dat_o[27] 0.000101386
9 wbs_dat_o[24] wbs_dat_o[27] 0.00540057
10 wbs_dat_o[26] wbs_dat_o[27] 0.000487643
11 *584:11 wbs_dat_o[27] 0
12 *635:13 wbs_dat_o[27] 0.000304157
13 *638:19 wbs_dat_o[27] 0.000314189
*RES
1 *664:wbs_dat_o[27] *645:7 1.35 
2 *645:7 *645:9 59.775 
3 *645:9 wbs_dat_o[27] 24.722 
*END

*D_NET *646 0.0206475
*CONN
*P wbs_dat_o[28] O
*I *664:wbs_dat_o[28] O *D signal_generator
*CAP
1 wbs_dat_o[28] 0.00419535
2 *664:wbs_dat_o[28] 7.20231e-05
3 *646:9 0.00749053
4 *646:7 0.0033672
5 wbs_dat_o[28] *658:17 0.000101386
6 wbs_dat_o[27] wbs_dat_o[28] 0.0053104
7 *584:11 wbs_dat_o[28] 0
8 *639:23 wbs_dat_o[28] 0.000110612
*RES
1 *664:wbs_dat_o[28] *646:7 1.35 
2 *646:7 *646:9 59.265 
3 *646:9 wbs_dat_o[28] 23.717 
*END

*D_NET *647 0.0148875
*CONN
*P wbs_dat_o[29] O
*I *664:wbs_dat_o[29] O *D signal_generator
*CAP
1 wbs_dat_o[29] 0.00214105
2 *664:wbs_dat_o[29] 0.00524967
3 *647:15 0.00739072
4 *647:15 *649:13 0
5 wbs_dat_o[22] wbs_dat_o[29] 0.00010611
6 *617:11 *647:15 0
7 *635:9 wbs_dat_o[29] 0
8 *636:9 wbs_dat_o[29] 0
*RES
1 *664:wbs_dat_o[29] *647:15 45.4763 
2 *647:15 wbs_dat_o[29] 37.2825 
*END

*D_NET *648 0.0743614
*CONN
*P wbs_dat_o[2] O
*I *664:wbs_dat_o[2] O *D signal_generator
*CAP
1 wbs_dat_o[2] 0.00054701
2 *664:wbs_dat_o[2] 7.20231e-05
3 *648:23 0.00846773
4 *648:13 0.00870272
5 *648:9 0.00426447
6 *648:7 0.0035545
7 *648:9 *656:19 8.33066e-06
8 *648:13 wbs_dat_o[8] 0.000219457
9 *648:13 *651:19 0.00419818
10 *648:13 *651:23 0.000101392
11 *648:13 *652:23 0.000221142
12 *648:13 *660:17 0.000260431
13 *648:13 *662:17 0.000360768
14 *648:23 wbs_dat_o[6] 0.00712291
15 *648:23 *658:15 0.00170892
16 *648:23 *660:11 0.00105176
17 wbs_dat_o[19] *648:23 0.00195944
18 wbs_dat_o[20] *648:23 0.000483647
19 *572:11 *648:23 0.000449932
20 *574:7 *648:23 0.000293155
21 *610:11 *648:9 0
22 *637:13 *648:13 0.00464659
23 *637:23 *648:23 0.0256669
*RES
1 *664:wbs_dat_o[2] *648:7 1.35 
2 *648:7 *648:9 59.9025 
3 *648:9 *648:13 49.025 
4 *648:13 *648:23 49.2367 
5 *648:23 wbs_dat_o[2] 9.7425 
*END

*D_NET *649 0.0155617
*CONN
*P wbs_dat_o[30] O
*I *664:wbs_dat_o[30] O *D signal_generator
*CAP
1 wbs_dat_o[30] 0.00300067
2 *664:wbs_dat_o[30] 0.00205556
3 *649:13 0.00505623
4 *649:13 *661:9 0.00371308
5 *639:9 wbs_dat_o[30] 0
6 *640:9 wbs_dat_o[30] 0.0017361
7 *647:15 *649:13 0
*RES
1 *664:wbs_dat_o[30] *649:13 17.1183 
2 *649:13 wbs_dat_o[30] 64.8225 
*END

*D_NET *650 0.0125695
*CONN
*P wbs_dat_o[31] O
*I *664:wbs_dat_o[31] O *D signal_generator
*CAP
1 wbs_dat_o[31] 0.00136312
2 *664:wbs_dat_o[31] 0.00414991
3 *650:13 0.00551303
4 *643:15 wbs_dat_o[31] 0.00154347
*RES
1 *664:wbs_dat_o[31] *650:13 49.5382 
2 *650:13 wbs_dat_o[31] 30.1325 
*END

*D_NET *651 0.0815168
*CONN
*P wbs_dat_o[3] O
*I *664:wbs_dat_o[3] O *D signal_generator
*CAP
1 wbs_dat_o[3] 0.000758592
2 *664:wbs_dat_o[3] 7.20231e-05
3 *651:23 0.00680845
4 *651:19 0.00676695
5 *651:9 0.00422035
6 *651:7 0.00357528
7 wbs_dat_o[3] *658:15 0
8 *651:19 wbs_dat_o[8] 0.000442099
9 *651:19 *652:19 0.00322447
10 *651:19 *652:23 0.000239662
11 *651:19 *656:19 0.000420043
12 *651:19 *660:17 9.55262e-06
13 *651:19 *662:17 0.000833574
14 *651:23 wbs_dat_o[8] 0.0189898
15 *651:23 *652:23 0.0248617
16 *651:23 *660:11 0.00425258
17 *651:23 *662:17 0.00174215
18 *578:7 *651:9 0
19 *648:13 *651:19 0.00419818
20 *648:13 *651:23 0.000101392
*RES
1 *664:wbs_dat_o[3] *651:7 1.35 
2 *651:7 *651:9 60.1575 
3 *651:9 *651:19 47.6175 
4 *651:19 *651:23 41.5577 
5 *651:23 wbs_dat_o[3] 12.8025 
*END

*D_NET *652 0.0726798
*CONN
*P wbs_dat_o[4] O
*I *664:wbs_dat_o[4] O *D signal_generator
*CAP
1 wbs_dat_o[4] 0.000766216
2 *664:wbs_dat_o[4] 7.20231e-05
3 *652:23 0.0132705
4 *652:19 0.0130953
5 *652:9 0.00410697
6 *652:7 0.00358799
7 *652:7 *653:9 0
8 *652:9 *653:9 0
9 *652:19 wbs_dat_o[8] 0.000479324
10 *652:19 *656:19 0.000260431
11 *652:19 *662:17 0.00367409
12 *652:23 wbs_dat_o[8] 0.000790944
13 *652:23 *660:17 0.00116149
14 *652:23 *662:17 0.000407576
15 wbs_dat_o[18] *652:9 0
16 *578:7 *652:9 0
17 *581:11 *652:23 0
18 *584:11 *652:23 0
19 *590:11 *652:23 0.00175027
20 *608:11 *652:19 0
21 *611:11 *652:9 0
22 *611:11 *652:23 0
23 *637:13 *652:23 0.000709755
24 *648:13 *652:23 0.000221142
25 *651:19 *652:19 0.00322447
26 *651:19 *652:23 0.000239662
27 *651:23 *652:23 0.0248617
*RES
1 *664:wbs_dat_o[4] *652:7 1.35 
2 *652:7 *652:9 60.4125 
3 *652:9 *652:19 39.1575 
4 *652:19 *652:23 40.8003 
5 *652:23 wbs_dat_o[4] 13.3125 
*END

*D_NET *653 0.0753357
*CONN
*P wbs_dat_o[5] O
*I *664:wbs_dat_o[5] O *D signal_generator
*CAP
1 wbs_dat_o[5] 0.00368036
2 *664:wbs_dat_o[5] 0.000594758
3 *653:13 0.00880361
4 *653:9 0.00571801
5 *653:13 *655:13 0.0267435
6 *653:13 *661:9 0.0297955
7 *664:wbs_adr_i[6] wbs_dat_o[5] 0
8 *590:13 wbs_dat_o[5] 0
9 *652:7 *653:9 0
10 *652:9 *653:9 0
*RES
1 *664:wbs_dat_o[5] *653:9 11.045 
2 *653:9 *653:13 44.7041 
3 *653:13 wbs_dat_o[5] 64.8225 
*END

*D_NET *654 0.0634021
*CONN
*P wbs_dat_o[6] O
*I *664:wbs_dat_o[6] O *D signal_generator
*CAP
1 wbs_dat_o[6] 0.00717363
2 *664:wbs_dat_o[6] 7.20231e-05
3 *654:19 0.00846986
4 *654:9 0.00468998
5 *654:7 0.00346578
6 wbs_dat_o[6] wbs_dat_o[8] 2.81461e-05
7 wbs_dat_o[6] *660:11 0.0175503
8 *654:7 *655:9 0
9 *654:9 *655:9 0
10 *654:19 *658:17 0.00307266
11 wbs_dat_o[18] wbs_dat_o[6] 0.00727108
12 wbs_dat_o[19] wbs_dat_o[6] 0.00160383
13 wbs_dat_o[23] *654:19 4.55864e-06
14 *579:7 *654:9 0
15 *639:23 wbs_dat_o[6] 0.00287734
16 *648:23 wbs_dat_o[6] 0.00712291
*RES
1 *664:wbs_dat_o[6] *654:7 1.35 
2 *654:7 *654:9 58.8825 
3 *654:9 *654:19 35.9325 
4 *654:19 wbs_dat_o[6] 49.9169 
*END

*D_NET *655 0.0721295
*CONN
*P wbs_dat_o[7] O
*I *664:wbs_dat_o[7] O *D signal_generator
*CAP
1 wbs_dat_o[7] 0.00307691
2 *664:wbs_dat_o[7] 0.00056019
3 *655:13 0.00842723
4 *655:9 0.00591051
5 *655:13 *657:13 0.0239301
6 *655:13 *661:9 0.000560262
7 *664:wbs_adr_i[13] wbs_dat_o[7] 0.00292077
8 *653:13 *655:13 0.0267435
9 *654:7 *655:9 0
10 *654:9 *655:9 0
*RES
1 *664:wbs_dat_o[7] *655:9 10.535 
2 *655:9 *655:13 41.616 
3 *655:13 wbs_dat_o[7] 65.3325 
*END

*D_NET *656 0.0757293
*CONN
*P wbs_dat_o[8] O
*I *664:wbs_dat_o[8] O *D signal_generator
*CAP
1 wbs_dat_o[8] 0.00724592
2 *664:wbs_dat_o[8] 7.20231e-05
3 *656:19 0.00783901
4 *656:9 0.00351911
5 *656:7 0.00299805
6 wbs_dat_o[8] *660:11 0.0146326
7 wbs_dat_o[8] *662:17 0.00433984
8 *656:7 *657:13 0
9 *656:9 *657:13 0
10 *656:19 *660:17 0.000651472
11 *656:19 *662:17 0.00072853
12 wbs_dat_o[18] wbs_dat_o[8] 0.00859865
13 wbs_dat_o[24] *656:19 0.000331855
14 wbs_dat_o[6] wbs_dat_o[8] 2.81461e-05
15 *610:11 *656:19 0
16 *611:11 wbs_dat_o[8] 0
17 *612:7 *656:9 0.00148177
18 *635:13 *656:19 0.00154209
19 *637:13 wbs_dat_o[8] 0.000109811
20 *648:9 *656:19 8.33066e-06
21 *648:13 wbs_dat_o[8] 0.000219457
22 *651:19 wbs_dat_o[8] 0.000442099
23 *651:19 *656:19 0.000420043
24 *651:23 wbs_dat_o[8] 0.0189898
25 *652:19 wbs_dat_o[8] 0.000479324
26 *652:19 *656:19 0.000260431
27 *652:23 wbs_dat_o[8] 0.000790944
*RES
1 *664:wbs_dat_o[8] *656:7 1.35 
2 *656:7 *656:9 59.9025 
3 *656:9 *656:19 30.0975 
4 *656:19 wbs_dat_o[8] 48.4897 
*END

*D_NET *657 0.0532272
*CONN
*P wbs_dat_o[9] O
*I *664:wbs_dat_o[9] O *D signal_generator
*CAP
1 wbs_dat_o[9] 0.00384828
2 *664:wbs_dat_o[9] 0.0105929
3 *657:13 0.0144411
4 *657:13 *661:9 0.000414833
5 *664:wbs_adr_i[19] wbs_dat_o[9] 0
6 *573:13 wbs_dat_o[9] 0
7 *655:13 *657:13 0.0239301
8 *656:7 *657:13 0
9 *656:9 *657:13 0
*RES
1 *664:wbs_dat_o[9] *657:13 48.5529 
2 *657:13 wbs_dat_o[9] 65.8425 
*END

*D_NET *658 0.0834296
*CONN
*P wbs_sel_i[0] I
*I *664:wbs_sel_i[0] I *D signal_generator
*CAP
1 wbs_sel_i[0] 0.00220221
2 *664:wbs_sel_i[0] 7.44194e-05
3 *658:21 0.00346668
4 *658:19 0.00339226
5 *658:17 0.0182848
6 *658:15 0.020487
7 *658:15 *662:15 0.00420755
8 *658:17 *660:17 0.0219522
9 *658:17 *662:17 0
10 *658:21 *664:wbs_sel_i[1] 0
11 io_oeb[26] *658:15 0
12 wbs_dat_o[24] *658:17 0.000279744
13 wbs_dat_o[27] *658:17 0.000306083
14 wbs_dat_o[28] *658:17 0.000101386
15 wbs_dat_o[3] *658:15 0
16 *572:11 *658:15 0.000481352
17 *619:7 *658:15 0
18 *637:23 *658:15 0.00105261
19 *639:23 *658:17 0.00235977
20 *648:23 *658:15 0.00170892
21 *654:19 *658:17 0.00307266
*RES
1 wbs_sel_i[0] *658:15 24.8425 
2 *658:15 *658:17 408.585 
3 *658:17 *658:19 2 
4 *658:19 *658:21 59.1375 
5 *658:21 *664:wbs_sel_i[0] 1.35 
*END

*D_NET *659 0.122577
*CONN
*P wbs_sel_i[1] I
*I *664:wbs_sel_i[1] I *D signal_generator
*CAP
1 wbs_sel_i[1] 0.0036302
2 *664:wbs_sel_i[1] 0.000654969
3 *659:9 0.00867679
4 *659:7 0.00802183
5 *659:5 0.0036302
6 *659:9 *661:9 0.0459932
7 *659:9 *663:9 0.049972
8 *664:wbs_adr_i[2] *659:9 0.00199796
9 *658:21 *664:wbs_sel_i[1] 0
*RES
1 wbs_sel_i[1] *659:5 63.8025 
2 *659:5 *659:7 0.5 
3 *659:7 *659:9 74.2697 
4 *659:9 *664:wbs_sel_i[1] 12.065 
*END

*D_NET *660 0.109213
*CONN
*P wbs_sel_i[2] I
*I *664:wbs_sel_i[2] I *D signal_generator
*CAP
1 wbs_sel_i[2] 0.00642021
2 *664:wbs_sel_i[2] 7.20231e-05
3 *660:21 0.0033418
4 *660:19 0.00326978
5 *660:17 0.00434292
6 *660:15 0.0044831
7 *660:11 0.00656038
8 *664:wbs_sel_i[2] *664:wbs_sel_i[3] 0
9 *660:11 *662:17 0.000102021
10 *660:17 *662:17 0.000715874
11 *660:21 *664:wbs_sel_i[3] 0
12 wbs_dat_o[18] *660:15 4.55864e-06
13 wbs_dat_o[22] *660:17 0.00164926
14 wbs_dat_o[23] *660:17 0.000260184
15 wbs_dat_o[24] *660:17 0.000368398
16 wbs_dat_o[27] *660:17 0.00075424
17 wbs_dat_o[6] *660:11 0.0175503
18 wbs_dat_o[8] *660:11 0.0146326
19 *572:11 *660:11 0.00241668
20 *635:13 *660:17 0.00602838
21 *636:19 *660:17 8.05742e-05
22 *637:13 *660:17 0.00681973
23 *648:13 *660:17 0.000260431
24 *648:23 *660:11 0.00105176
25 *651:19 *660:17 9.55262e-06
26 *651:23 *660:11 0.00425258
27 *652:23 *660:17 0.00116149
28 *656:19 *660:17 0.000651472
29 *658:17 *660:17 0.0219522
*RES
1 wbs_sel_i[2] *660:11 49.412 
2 *660:11 *660:15 4.0175 
3 *660:15 *660:17 210.9 
4 *660:17 *660:19 2 
5 *660:19 *660:21 59.3925 
6 *660:21 *664:wbs_sel_i[2] 1.35 
*END

*D_NET *661 0.110253
*CONN
*P wbs_sel_i[3] I
*I *664:wbs_sel_i[3] I *D signal_generator
*CAP
1 wbs_sel_i[3] 0.00328536
2 *664:wbs_sel_i[3] 0.000609166
3 *661:9 0.0101676
4 *661:7 0.00955844
5 *661:5 0.00328536
6 *661:9 *663:9 0.000560262
7 *664:wbs_adr_i[0] *661:5 0.00149097
8 *664:wbs_adr_i[2] *661:9 0.000818757
9 *664:wbs_sel_i[2] *664:wbs_sel_i[3] 0
10 *649:13 *661:9 0.00371308
11 *653:13 *661:9 0.0297955
12 *655:13 *661:9 0.000560262
13 *657:13 *661:9 0.000414833
14 *659:9 *661:9 0.0459932
15 *660:21 *664:wbs_sel_i[3] 0
*RES
1 wbs_sel_i[3] *661:5 64.3125 
2 *661:5 *661:7 0.5 
3 *661:7 *661:9 69.7249 
4 *661:9 *664:wbs_sel_i[3] 11.555 
*END

*D_NET *662 0.0856363
*CONN
*P wbs_stb_i I
*I *664:wbs_stb_i I *D signal_generator
*CAP
1 wbs_stb_i 0.00297658
2 *664:wbs_stb_i 7.20231e-05
3 *662:21 0.00340465
4 *662:19 0.00333262
5 *662:17 0.0221005
6 *662:15 0.0250771
7 *664:wbs_stb_i *664:wbs_we_i 0
8 *662:21 *664:wbs_we_i 0
9 wbs_dat_o[0] *662:15 0.000222128
10 wbs_dat_o[18] *662:17 0.000820276
11 wbs_dat_o[22] *662:17 0.00011115
12 wbs_dat_o[23] *662:17 0.000396039
13 wbs_dat_o[24] *662:17 0.00109694
14 wbs_dat_o[26] *662:17 0.00121663
15 wbs_dat_o[8] *662:17 0.00433984
16 *664:io_in[26] *662:15 0.000195086
17 *572:11 *662:15 0.00374592
18 *586:5 *662:15 0
19 *594:11 *662:15 0.000331246
20 *635:13 *662:17 0.000206372
21 *636:19 *662:17 0.000467224
22 *637:13 *662:17 0.00067786
23 *638:19 *662:17 0.00207405
24 *648:13 *662:17 0.000360768
25 *651:19 *662:17 0.000833574
26 *651:23 *662:17 0.00174215
27 *652:19 *662:17 0.00367409
28 *652:23 *662:17 0.000407576
29 *656:19 *662:17 0.00072853
30 *658:15 *662:15 0.00420755
31 *658:17 *662:17 0
32 *660:11 *662:17 0.000102021
33 *660:17 *662:17 0.000715874
*RES
1 wbs_stb_i *662:15 25.7597 
2 *662:15 *662:17 433.08 
3 *662:17 *662:19 2 
4 *662:19 *662:21 60.6675 
5 *662:21 *664:wbs_stb_i 1.35 
*END

*D_NET *663 0.104224
*CONN
*P wbs_we_i I
*I *664:wbs_we_i I *D signal_generator
*CAP
1 wbs_we_i 0.00355532
2 *664:wbs_we_i 0.000665349
3 *663:9 0.0209972
4 *663:7 0.0203319
5 *663:5 0.00355532
6 *664:wbs_adr_i[3] *663:9 0.000848953
7 *664:wbs_dat_i[16] *663:9 0.00373739
8 *664:wbs_dat_i[17] *663:9 0
9 *664:wbs_dat_i[1] *663:9 0
10 *664:wbs_dat_i[28] *663:9 0
11 *664:wbs_dat_i[9] *663:9 0
12 *664:wbs_stb_i *664:wbs_we_i 0
13 *560:15 *663:9 0
14 *629:15 *663:9 0
15 *659:9 *663:9 0.049972
16 *661:9 *663:9 0.000560262
17 *662:21 *664:wbs_we_i 0
*RES
1 wbs_we_i *663:5 63.2925 
2 *663:5 *663:7 0.5 
3 *663:7 *663:9 83.068 
4 *663:9 *664:wbs_we_i 12.575 
*END
