*SPEF "ieee 1481-1999"
*DESIGN "user_analog_project_wrapper"
*DATE "11:11:11 Fri 11 11, 1111"
*VENDOR "OpenRCX"
*PROGRAM "Parallel Extraction"
*VERSION "1.0"
*DESIGN_FLOW "NAME_SCOPE LOCAL" "PIN_CAP NONE"
*DIVIDER /
*DELIMITER :
*BUS_DELIMITER []
*T_UNIT 1 NS
*C_UNIT 1 PF
*R_UNIT 1 OHM
*L_UNIT 1 HENRY

*NAME_MAP
*1 gpio_analog[0]
*2 gpio_analog[10]
*3 gpio_analog[11]
*4 gpio_analog[12]
*5 gpio_analog[13]
*6 gpio_analog[14]
*7 gpio_analog[15]
*8 gpio_analog[16]
*9 gpio_analog[17]
*10 gpio_analog[1]
*11 gpio_analog[2]
*12 gpio_analog[3]
*13 gpio_analog[4]
*14 gpio_analog[5]
*15 gpio_analog[6]
*16 gpio_analog[7]
*17 gpio_analog[8]
*18 gpio_analog[9]
*19 gpio_noesd[0]
*20 gpio_noesd[10]
*21 gpio_noesd[11]
*22 gpio_noesd[12]
*23 gpio_noesd[13]
*24 gpio_noesd[14]
*25 gpio_noesd[15]
*26 gpio_noesd[16]
*27 gpio_noesd[17]
*28 gpio_noesd[1]
*29 gpio_noesd[2]
*30 gpio_noesd[3]
*31 gpio_noesd[4]
*32 gpio_noesd[5]
*33 gpio_noesd[6]
*34 gpio_noesd[7]
*35 gpio_noesd[8]
*36 gpio_noesd[9]
*37 io_analog[0]
*38 io_analog[10]
*39 io_analog[1]
*40 io_analog[2]
*41 io_analog[3]
*42 io_analog[4]
*43 io_analog[5]
*44 io_analog[6]
*45 io_analog[7]
*46 io_analog[8]
*47 io_analog[9]
*48 io_clamp_high[0]
*49 io_clamp_high[1]
*50 io_clamp_high[2]
*51 io_clamp_low[0]
*52 io_clamp_low[1]
*53 io_clamp_low[2]
*54 io_in[0]
*55 io_in[10]
*56 io_in[11]
*57 io_in[12]
*58 io_in[13]
*59 io_in[14]
*60 io_in[15]
*61 io_in[16]
*62 io_in[17]
*63 io_in[18]
*64 io_in[19]
*65 io_in[1]
*66 io_in[20]
*67 io_in[21]
*68 io_in[22]
*69 io_in[23]
*70 io_in[24]
*71 io_in[25]
*72 io_in[26]
*73 io_in[2]
*74 io_in[3]
*75 io_in[4]
*76 io_in[5]
*77 io_in[6]
*78 io_in[7]
*79 io_in[8]
*80 io_in[9]
*81 io_in_3v3[0]
*82 io_in_3v3[10]
*83 io_in_3v3[11]
*84 io_in_3v3[12]
*85 io_in_3v3[13]
*86 io_in_3v3[14]
*87 io_in_3v3[15]
*88 io_in_3v3[16]
*89 io_in_3v3[17]
*90 io_in_3v3[18]
*91 io_in_3v3[19]
*92 io_in_3v3[1]
*93 io_in_3v3[20]
*94 io_in_3v3[21]
*95 io_in_3v3[22]
*96 io_in_3v3[23]
*97 io_in_3v3[24]
*98 io_in_3v3[25]
*99 io_in_3v3[26]
*100 io_in_3v3[2]
*101 io_in_3v3[3]
*102 io_in_3v3[4]
*103 io_in_3v3[5]
*104 io_in_3v3[6]
*105 io_in_3v3[7]
*106 io_in_3v3[8]
*107 io_in_3v3[9]
*108 io_oeb[0]
*109 io_oeb[10]
*110 io_oeb[11]
*111 io_oeb[12]
*112 io_oeb[13]
*113 io_oeb[14]
*114 io_oeb[15]
*115 io_oeb[16]
*116 io_oeb[17]
*117 io_oeb[18]
*118 io_oeb[19]
*119 io_oeb[1]
*120 io_oeb[20]
*121 io_oeb[21]
*122 io_oeb[22]
*123 io_oeb[23]
*124 io_oeb[24]
*125 io_oeb[25]
*126 io_oeb[26]
*127 io_oeb[2]
*128 io_oeb[3]
*129 io_oeb[4]
*130 io_oeb[5]
*131 io_oeb[6]
*132 io_oeb[7]
*133 io_oeb[8]
*134 io_oeb[9]
*135 io_out[0]
*136 io_out[10]
*137 io_out[11]
*138 io_out[12]
*139 io_out[13]
*140 io_out[14]
*141 io_out[15]
*142 io_out[16]
*143 io_out[17]
*144 io_out[18]
*145 io_out[19]
*146 io_out[1]
*147 io_out[20]
*148 io_out[21]
*149 io_out[22]
*150 io_out[23]
*151 io_out[24]
*152 io_out[25]
*153 io_out[26]
*154 io_out[2]
*155 io_out[3]
*156 io_out[4]
*157 io_out[5]
*158 io_out[6]
*159 io_out[7]
*160 io_out[8]
*161 io_out[9]
*162 la_data_in[0]
*163 la_data_in[100]
*164 la_data_in[101]
*165 la_data_in[102]
*166 la_data_in[103]
*167 la_data_in[104]
*168 la_data_in[105]
*169 la_data_in[106]
*170 la_data_in[107]
*171 la_data_in[108]
*172 la_data_in[109]
*173 la_data_in[10]
*174 la_data_in[110]
*175 la_data_in[111]
*176 la_data_in[112]
*177 la_data_in[113]
*178 la_data_in[114]
*179 la_data_in[115]
*180 la_data_in[116]
*181 la_data_in[117]
*182 la_data_in[118]
*183 la_data_in[119]
*184 la_data_in[11]
*185 la_data_in[120]
*186 la_data_in[121]
*187 la_data_in[122]
*188 la_data_in[123]
*189 la_data_in[124]
*190 la_data_in[125]
*191 la_data_in[126]
*192 la_data_in[127]
*193 la_data_in[12]
*194 la_data_in[13]
*195 la_data_in[14]
*196 la_data_in[15]
*197 la_data_in[16]
*198 la_data_in[17]
*199 la_data_in[18]
*200 la_data_in[19]
*201 la_data_in[1]
*202 la_data_in[20]
*203 la_data_in[21]
*204 la_data_in[22]
*205 la_data_in[23]
*206 la_data_in[24]
*207 la_data_in[25]
*208 la_data_in[26]
*209 la_data_in[27]
*210 la_data_in[28]
*211 la_data_in[29]
*212 la_data_in[2]
*213 la_data_in[30]
*214 la_data_in[31]
*215 la_data_in[32]
*216 la_data_in[33]
*217 la_data_in[34]
*218 la_data_in[35]
*219 la_data_in[36]
*220 la_data_in[37]
*221 la_data_in[38]
*222 la_data_in[39]
*223 la_data_in[3]
*224 la_data_in[40]
*225 la_data_in[41]
*226 la_data_in[42]
*227 la_data_in[43]
*228 la_data_in[44]
*229 la_data_in[45]
*230 la_data_in[46]
*231 la_data_in[47]
*232 la_data_in[48]
*233 la_data_in[49]
*234 la_data_in[4]
*235 la_data_in[50]
*236 la_data_in[51]
*237 la_data_in[52]
*238 la_data_in[53]
*239 la_data_in[54]
*240 la_data_in[55]
*241 la_data_in[56]
*242 la_data_in[57]
*243 la_data_in[58]
*244 la_data_in[59]
*245 la_data_in[5]
*246 la_data_in[60]
*247 la_data_in[61]
*248 la_data_in[62]
*249 la_data_in[63]
*250 la_data_in[64]
*251 la_data_in[65]
*252 la_data_in[66]
*253 la_data_in[67]
*254 la_data_in[68]
*255 la_data_in[69]
*256 la_data_in[6]
*257 la_data_in[70]
*258 la_data_in[71]
*259 la_data_in[72]
*260 la_data_in[73]
*261 la_data_in[74]
*262 la_data_in[75]
*263 la_data_in[76]
*264 la_data_in[77]
*265 la_data_in[78]
*266 la_data_in[79]
*267 la_data_in[7]
*268 la_data_in[80]
*269 la_data_in[81]
*270 la_data_in[82]
*271 la_data_in[83]
*272 la_data_in[84]
*273 la_data_in[85]
*274 la_data_in[86]
*275 la_data_in[87]
*276 la_data_in[88]
*277 la_data_in[89]
*278 la_data_in[8]
*279 la_data_in[90]
*280 la_data_in[91]
*281 la_data_in[92]
*282 la_data_in[93]
*283 la_data_in[94]
*284 la_data_in[95]
*285 la_data_in[96]
*286 la_data_in[97]
*287 la_data_in[98]
*288 la_data_in[99]
*289 la_data_in[9]
*290 la_data_out[0]
*291 la_data_out[100]
*292 la_data_out[101]
*293 la_data_out[102]
*294 la_data_out[103]
*295 la_data_out[104]
*296 la_data_out[105]
*297 la_data_out[106]
*298 la_data_out[107]
*299 la_data_out[108]
*300 la_data_out[109]
*301 la_data_out[10]
*302 la_data_out[110]
*303 la_data_out[111]
*304 la_data_out[112]
*305 la_data_out[113]
*306 la_data_out[114]
*307 la_data_out[115]
*308 la_data_out[116]
*309 la_data_out[117]
*310 la_data_out[118]
*311 la_data_out[119]
*312 la_data_out[11]
*313 la_data_out[120]
*314 la_data_out[121]
*315 la_data_out[122]
*316 la_data_out[123]
*317 la_data_out[124]
*318 la_data_out[125]
*319 la_data_out[126]
*320 la_data_out[127]
*321 la_data_out[12]
*322 la_data_out[13]
*323 la_data_out[14]
*324 la_data_out[15]
*325 la_data_out[16]
*326 la_data_out[17]
*327 la_data_out[18]
*328 la_data_out[19]
*329 la_data_out[1]
*330 la_data_out[20]
*331 la_data_out[21]
*332 la_data_out[22]
*333 la_data_out[23]
*334 la_data_out[24]
*335 la_data_out[25]
*336 la_data_out[26]
*337 la_data_out[27]
*338 la_data_out[28]
*339 la_data_out[29]
*340 la_data_out[2]
*341 la_data_out[30]
*342 la_data_out[31]
*343 la_data_out[32]
*344 la_data_out[33]
*345 la_data_out[34]
*346 la_data_out[35]
*347 la_data_out[36]
*348 la_data_out[37]
*349 la_data_out[38]
*350 la_data_out[39]
*351 la_data_out[3]
*352 la_data_out[40]
*353 la_data_out[41]
*354 la_data_out[42]
*355 la_data_out[43]
*356 la_data_out[44]
*357 la_data_out[45]
*358 la_data_out[46]
*359 la_data_out[47]
*360 la_data_out[48]
*361 la_data_out[49]
*362 la_data_out[4]
*363 la_data_out[50]
*364 la_data_out[51]
*365 la_data_out[52]
*366 la_data_out[53]
*367 la_data_out[54]
*368 la_data_out[55]
*369 la_data_out[56]
*370 la_data_out[57]
*371 la_data_out[58]
*372 la_data_out[59]
*373 la_data_out[5]
*374 la_data_out[60]
*375 la_data_out[61]
*376 la_data_out[62]
*377 la_data_out[63]
*378 la_data_out[64]
*379 la_data_out[65]
*380 la_data_out[66]
*381 la_data_out[67]
*382 la_data_out[68]
*383 la_data_out[69]
*384 la_data_out[6]
*385 la_data_out[70]
*386 la_data_out[71]
*387 la_data_out[72]
*388 la_data_out[73]
*389 la_data_out[74]
*390 la_data_out[75]
*391 la_data_out[76]
*392 la_data_out[77]
*393 la_data_out[78]
*394 la_data_out[79]
*395 la_data_out[7]
*396 la_data_out[80]
*397 la_data_out[81]
*398 la_data_out[82]
*399 la_data_out[83]
*400 la_data_out[84]
*401 la_data_out[85]
*402 la_data_out[86]
*403 la_data_out[87]
*404 la_data_out[88]
*405 la_data_out[89]
*406 la_data_out[8]
*407 la_data_out[90]
*408 la_data_out[91]
*409 la_data_out[92]
*410 la_data_out[93]
*411 la_data_out[94]
*412 la_data_out[95]
*413 la_data_out[96]
*414 la_data_out[97]
*415 la_data_out[98]
*416 la_data_out[99]
*417 la_data_out[9]
*418 la_oenb[0]
*419 la_oenb[100]
*420 la_oenb[101]
*421 la_oenb[102]
*422 la_oenb[103]
*423 la_oenb[104]
*424 la_oenb[105]
*425 la_oenb[106]
*426 la_oenb[107]
*427 la_oenb[108]
*428 la_oenb[109]
*429 la_oenb[10]
*430 la_oenb[110]
*431 la_oenb[111]
*432 la_oenb[112]
*433 la_oenb[113]
*434 la_oenb[114]
*435 la_oenb[115]
*436 la_oenb[116]
*437 la_oenb[117]
*438 la_oenb[118]
*439 la_oenb[119]
*440 la_oenb[11]
*441 la_oenb[120]
*442 la_oenb[121]
*443 la_oenb[122]
*444 la_oenb[123]
*445 la_oenb[124]
*446 la_oenb[125]
*447 la_oenb[126]
*448 la_oenb[127]
*449 la_oenb[12]
*450 la_oenb[13]
*451 la_oenb[14]
*452 la_oenb[15]
*453 la_oenb[16]
*454 la_oenb[17]
*455 la_oenb[18]
*456 la_oenb[19]
*457 la_oenb[1]
*458 la_oenb[20]
*459 la_oenb[21]
*460 la_oenb[22]
*461 la_oenb[23]
*462 la_oenb[24]
*463 la_oenb[25]
*464 la_oenb[26]
*465 la_oenb[27]
*466 la_oenb[28]
*467 la_oenb[29]
*468 la_oenb[2]
*469 la_oenb[30]
*470 la_oenb[31]
*471 la_oenb[32]
*472 la_oenb[33]
*473 la_oenb[34]
*474 la_oenb[35]
*475 la_oenb[36]
*476 la_oenb[37]
*477 la_oenb[38]
*478 la_oenb[39]
*479 la_oenb[3]
*480 la_oenb[40]
*481 la_oenb[41]
*482 la_oenb[42]
*483 la_oenb[43]
*484 la_oenb[44]
*485 la_oenb[45]
*486 la_oenb[46]
*487 la_oenb[47]
*488 la_oenb[48]
*489 la_oenb[49]
*490 la_oenb[4]
*491 la_oenb[50]
*492 la_oenb[51]
*493 la_oenb[52]
*494 la_oenb[53]
*495 la_oenb[54]
*496 la_oenb[55]
*497 la_oenb[56]
*498 la_oenb[57]
*499 la_oenb[58]
*500 la_oenb[59]
*501 la_oenb[5]
*502 la_oenb[60]
*503 la_oenb[61]
*504 la_oenb[62]
*505 la_oenb[63]
*506 la_oenb[64]
*507 la_oenb[65]
*508 la_oenb[66]
*509 la_oenb[67]
*510 la_oenb[68]
*511 la_oenb[69]
*512 la_oenb[6]
*513 la_oenb[70]
*514 la_oenb[71]
*515 la_oenb[72]
*516 la_oenb[73]
*517 la_oenb[74]
*518 la_oenb[75]
*519 la_oenb[76]
*520 la_oenb[77]
*521 la_oenb[78]
*522 la_oenb[79]
*523 la_oenb[7]
*524 la_oenb[80]
*525 la_oenb[81]
*526 la_oenb[82]
*527 la_oenb[83]
*528 la_oenb[84]
*529 la_oenb[85]
*530 la_oenb[86]
*531 la_oenb[87]
*532 la_oenb[88]
*533 la_oenb[89]
*534 la_oenb[8]
*535 la_oenb[90]
*536 la_oenb[91]
*537 la_oenb[92]
*538 la_oenb[93]
*539 la_oenb[94]
*540 la_oenb[95]
*541 la_oenb[96]
*542 la_oenb[97]
*543 la_oenb[98]
*544 la_oenb[99]
*545 la_oenb[9]
*546 user_clock2
*547 user_irq[0]
*548 user_irq[1]
*549 user_irq[2]
*558 wb_clk_i
*559 wb_rst_i
*560 wbs_ack_o
*561 wbs_adr_i[0]
*562 wbs_adr_i[10]
*563 wbs_adr_i[11]
*564 wbs_adr_i[12]
*565 wbs_adr_i[13]
*566 wbs_adr_i[14]
*567 wbs_adr_i[15]
*568 wbs_adr_i[16]
*569 wbs_adr_i[17]
*570 wbs_adr_i[18]
*571 wbs_adr_i[19]
*572 wbs_adr_i[1]
*573 wbs_adr_i[20]
*574 wbs_adr_i[21]
*575 wbs_adr_i[22]
*576 wbs_adr_i[23]
*577 wbs_adr_i[24]
*578 wbs_adr_i[25]
*579 wbs_adr_i[26]
*580 wbs_adr_i[27]
*581 wbs_adr_i[28]
*582 wbs_adr_i[29]
*583 wbs_adr_i[2]
*584 wbs_adr_i[30]
*585 wbs_adr_i[31]
*586 wbs_adr_i[3]
*587 wbs_adr_i[4]
*588 wbs_adr_i[5]
*589 wbs_adr_i[6]
*590 wbs_adr_i[7]
*591 wbs_adr_i[8]
*592 wbs_adr_i[9]
*593 wbs_cyc_i
*594 wbs_dat_i[0]
*595 wbs_dat_i[10]
*596 wbs_dat_i[11]
*597 wbs_dat_i[12]
*598 wbs_dat_i[13]
*599 wbs_dat_i[14]
*600 wbs_dat_i[15]
*601 wbs_dat_i[16]
*602 wbs_dat_i[17]
*603 wbs_dat_i[18]
*604 wbs_dat_i[19]
*605 wbs_dat_i[1]
*606 wbs_dat_i[20]
*607 wbs_dat_i[21]
*608 wbs_dat_i[22]
*609 wbs_dat_i[23]
*610 wbs_dat_i[24]
*611 wbs_dat_i[25]
*612 wbs_dat_i[26]
*613 wbs_dat_i[27]
*614 wbs_dat_i[28]
*615 wbs_dat_i[29]
*616 wbs_dat_i[2]
*617 wbs_dat_i[30]
*618 wbs_dat_i[31]
*619 wbs_dat_i[3]
*620 wbs_dat_i[4]
*621 wbs_dat_i[5]
*622 wbs_dat_i[6]
*623 wbs_dat_i[7]
*624 wbs_dat_i[8]
*625 wbs_dat_i[9]
*626 wbs_dat_o[0]
*627 wbs_dat_o[10]
*628 wbs_dat_o[11]
*629 wbs_dat_o[12]
*630 wbs_dat_o[13]
*631 wbs_dat_o[14]
*632 wbs_dat_o[15]
*633 wbs_dat_o[16]
*634 wbs_dat_o[17]
*635 wbs_dat_o[18]
*636 wbs_dat_o[19]
*637 wbs_dat_o[1]
*638 wbs_dat_o[20]
*639 wbs_dat_o[21]
*640 wbs_dat_o[22]
*641 wbs_dat_o[23]
*642 wbs_dat_o[24]
*643 wbs_dat_o[25]
*644 wbs_dat_o[26]
*645 wbs_dat_o[27]
*646 wbs_dat_o[28]
*647 wbs_dat_o[29]
*648 wbs_dat_o[2]
*649 wbs_dat_o[30]
*650 wbs_dat_o[31]
*651 wbs_dat_o[3]
*652 wbs_dat_o[4]
*653 wbs_dat_o[5]
*654 wbs_dat_o[6]
*655 wbs_dat_o[7]
*656 wbs_dat_o[8]
*657 wbs_dat_o[9]
*658 wbs_sel_i[0]
*659 wbs_sel_i[1]
*660 wbs_sel_i[2]
*661 wbs_sel_i[3]
*662 wbs_stb_i
*663 wbs_we_i
*664 signal_generator

*PORTS
gpio_analog[0] I
gpio_analog[10] I
gpio_analog[11] I
gpio_analog[12] I
gpio_analog[13] I
gpio_analog[14] I
gpio_analog[15] I
gpio_analog[16] I
gpio_analog[17] I
gpio_analog[1] I
gpio_analog[2] I
gpio_analog[3] I
gpio_analog[4] I
gpio_analog[5] I
gpio_analog[6] I
gpio_analog[7] I
gpio_analog[8] I
gpio_analog[9] I
gpio_noesd[0] I
gpio_noesd[10] I
gpio_noesd[11] I
gpio_noesd[12] I
gpio_noesd[13] I
gpio_noesd[14] I
gpio_noesd[15] I
gpio_noesd[16] I
gpio_noesd[17] I
gpio_noesd[1] I
gpio_noesd[2] I
gpio_noesd[3] I
gpio_noesd[4] I
gpio_noesd[5] I
gpio_noesd[6] I
gpio_noesd[7] I
gpio_noesd[8] I
gpio_noesd[9] I
io_analog[0] I
io_analog[10] I
io_analog[1] I
io_analog[2] I
io_analog[3] I
io_analog[4] I
io_analog[5] I
io_analog[6] I
io_analog[7] I
io_analog[8] I
io_analog[9] I
io_clamp_high[0] I
io_clamp_high[1] I
io_clamp_high[2] I
io_clamp_low[0] I
io_clamp_low[1] I
io_clamp_low[2] I
io_in[0] I
io_in[10] I
io_in[11] I
io_in[12] I
io_in[13] I
io_in[14] I
io_in[15] I
io_in[16] I
io_in[17] I
io_in[18] I
io_in[19] I
io_in[1] I
io_in[20] I
io_in[21] I
io_in[22] I
io_in[23] I
io_in[24] I
io_in[25] I
io_in[26] I
io_in[2] I
io_in[3] I
io_in[4] I
io_in[5] I
io_in[6] I
io_in[7] I
io_in[8] I
io_in[9] I
io_in_3v3[0] I
io_in_3v3[10] I
io_in_3v3[11] I
io_in_3v3[12] I
io_in_3v3[13] I
io_in_3v3[14] I
io_in_3v3[15] I
io_in_3v3[16] I
io_in_3v3[17] I
io_in_3v3[18] I
io_in_3v3[19] I
io_in_3v3[1] I
io_in_3v3[20] I
io_in_3v3[21] I
io_in_3v3[22] I
io_in_3v3[23] I
io_in_3v3[24] I
io_in_3v3[25] I
io_in_3v3[26] I
io_in_3v3[2] I
io_in_3v3[3] I
io_in_3v3[4] I
io_in_3v3[5] I
io_in_3v3[6] I
io_in_3v3[7] I
io_in_3v3[8] I
io_in_3v3[9] I
io_oeb[0] O
io_oeb[10] O
io_oeb[11] O
io_oeb[12] O
io_oeb[13] O
io_oeb[14] O
io_oeb[15] O
io_oeb[16] O
io_oeb[17] O
io_oeb[18] O
io_oeb[19] O
io_oeb[1] O
io_oeb[20] O
io_oeb[21] O
io_oeb[22] O
io_oeb[23] O
io_oeb[24] O
io_oeb[25] O
io_oeb[26] O
io_oeb[2] O
io_oeb[3] O
io_oeb[4] O
io_oeb[5] O
io_oeb[6] O
io_oeb[7] O
io_oeb[8] O
io_oeb[9] O
io_out[0] O
io_out[10] O
io_out[11] O
io_out[12] O
io_out[13] O
io_out[14] O
io_out[15] O
io_out[16] O
io_out[17] O
io_out[18] O
io_out[19] O
io_out[1] O
io_out[20] O
io_out[21] O
io_out[22] O
io_out[23] O
io_out[24] O
io_out[25] O
io_out[26] O
io_out[2] O
io_out[3] O
io_out[4] O
io_out[5] O
io_out[6] O
io_out[7] O
io_out[8] O
io_out[9] O
la_data_in[0] I
la_data_in[100] I
la_data_in[101] I
la_data_in[102] I
la_data_in[103] I
la_data_in[104] I
la_data_in[105] I
la_data_in[106] I
la_data_in[107] I
la_data_in[108] I
la_data_in[109] I
la_data_in[10] I
la_data_in[110] I
la_data_in[111] I
la_data_in[112] I
la_data_in[113] I
la_data_in[114] I
la_data_in[115] I
la_data_in[116] I
la_data_in[117] I
la_data_in[118] I
la_data_in[119] I
la_data_in[11] I
la_data_in[120] I
la_data_in[121] I
la_data_in[122] I
la_data_in[123] I
la_data_in[124] I
la_data_in[125] I
la_data_in[126] I
la_data_in[127] I
la_data_in[12] I
la_data_in[13] I
la_data_in[14] I
la_data_in[15] I
la_data_in[16] I
la_data_in[17] I
la_data_in[18] I
la_data_in[19] I
la_data_in[1] I
la_data_in[20] I
la_data_in[21] I
la_data_in[22] I
la_data_in[23] I
la_data_in[24] I
la_data_in[25] I
la_data_in[26] I
la_data_in[27] I
la_data_in[28] I
la_data_in[29] I
la_data_in[2] I
la_data_in[30] I
la_data_in[31] I
la_data_in[32] I
la_data_in[33] I
la_data_in[34] I
la_data_in[35] I
la_data_in[36] I
la_data_in[37] I
la_data_in[38] I
la_data_in[39] I
la_data_in[3] I
la_data_in[40] I
la_data_in[41] I
la_data_in[42] I
la_data_in[43] I
la_data_in[44] I
la_data_in[45] I
la_data_in[46] I
la_data_in[47] I
la_data_in[48] I
la_data_in[49] I
la_data_in[4] I
la_data_in[50] I
la_data_in[51] I
la_data_in[52] I
la_data_in[53] I
la_data_in[54] I
la_data_in[55] I
la_data_in[56] I
la_data_in[57] I
la_data_in[58] I
la_data_in[59] I
la_data_in[5] I
la_data_in[60] I
la_data_in[61] I
la_data_in[62] I
la_data_in[63] I
la_data_in[64] I
la_data_in[65] I
la_data_in[66] I
la_data_in[67] I
la_data_in[68] I
la_data_in[69] I
la_data_in[6] I
la_data_in[70] I
la_data_in[71] I
la_data_in[72] I
la_data_in[73] I
la_data_in[74] I
la_data_in[75] I
la_data_in[76] I
la_data_in[77] I
la_data_in[78] I
la_data_in[79] I
la_data_in[7] I
la_data_in[80] I
la_data_in[81] I
la_data_in[82] I
la_data_in[83] I
la_data_in[84] I
la_data_in[85] I
la_data_in[86] I
la_data_in[87] I
la_data_in[88] I
la_data_in[89] I
la_data_in[8] I
la_data_in[90] I
la_data_in[91] I
la_data_in[92] I
la_data_in[93] I
la_data_in[94] I
la_data_in[95] I
la_data_in[96] I
la_data_in[97] I
la_data_in[98] I
la_data_in[99] I
la_data_in[9] I
la_data_out[0] O
la_data_out[100] O
la_data_out[101] O
la_data_out[102] O
la_data_out[103] O
la_data_out[104] O
la_data_out[105] O
la_data_out[106] O
la_data_out[107] O
la_data_out[108] O
la_data_out[109] O
la_data_out[10] O
la_data_out[110] O
la_data_out[111] O
la_data_out[112] O
la_data_out[113] O
la_data_out[114] O
la_data_out[115] O
la_data_out[116] O
la_data_out[117] O
la_data_out[118] O
la_data_out[119] O
la_data_out[11] O
la_data_out[120] O
la_data_out[121] O
la_data_out[122] O
la_data_out[123] O
la_data_out[124] O
la_data_out[125] O
la_data_out[126] O
la_data_out[127] O
la_data_out[12] O
la_data_out[13] O
la_data_out[14] O
la_data_out[15] O
la_data_out[16] O
la_data_out[17] O
la_data_out[18] O
la_data_out[19] O
la_data_out[1] O
la_data_out[20] O
la_data_out[21] O
la_data_out[22] O
la_data_out[23] O
la_data_out[24] O
la_data_out[25] O
la_data_out[26] O
la_data_out[27] O
la_data_out[28] O
la_data_out[29] O
la_data_out[2] O
la_data_out[30] O
la_data_out[31] O
la_data_out[32] O
la_data_out[33] O
la_data_out[34] O
la_data_out[35] O
la_data_out[36] O
la_data_out[37] O
la_data_out[38] O
la_data_out[39] O
la_data_out[3] O
la_data_out[40] O
la_data_out[41] O
la_data_out[42] O
la_data_out[43] O
la_data_out[44] O
la_data_out[45] O
la_data_out[46] O
la_data_out[47] O
la_data_out[48] O
la_data_out[49] O
la_data_out[4] O
la_data_out[50] O
la_data_out[51] O
la_data_out[52] O
la_data_out[53] O
la_data_out[54] O
la_data_out[55] O
la_data_out[56] O
la_data_out[57] O
la_data_out[58] O
la_data_out[59] O
la_data_out[5] O
la_data_out[60] O
la_data_out[61] O
la_data_out[62] O
la_data_out[63] O
la_data_out[64] O
la_data_out[65] O
la_data_out[66] O
la_data_out[67] O
la_data_out[68] O
la_data_out[69] O
la_data_out[6] O
la_data_out[70] O
la_data_out[71] O
la_data_out[72] O
la_data_out[73] O
la_data_out[74] O
la_data_out[75] O
la_data_out[76] O
la_data_out[77] O
la_data_out[78] O
la_data_out[79] O
la_data_out[7] O
la_data_out[80] O
la_data_out[81] O
la_data_out[82] O
la_data_out[83] O
la_data_out[84] O
la_data_out[85] O
la_data_out[86] O
la_data_out[87] O
la_data_out[88] O
la_data_out[89] O
la_data_out[8] O
la_data_out[90] O
la_data_out[91] O
la_data_out[92] O
la_data_out[93] O
la_data_out[94] O
la_data_out[95] O
la_data_out[96] O
la_data_out[97] O
la_data_out[98] O
la_data_out[99] O
la_data_out[9] O
la_oenb[0] I
la_oenb[100] I
la_oenb[101] I
la_oenb[102] I
la_oenb[103] I
la_oenb[104] I
la_oenb[105] I
la_oenb[106] I
la_oenb[107] I
la_oenb[108] I
la_oenb[109] I
la_oenb[10] I
la_oenb[110] I
la_oenb[111] I
la_oenb[112] I
la_oenb[113] I
la_oenb[114] I
la_oenb[115] I
la_oenb[116] I
la_oenb[117] I
la_oenb[118] I
la_oenb[119] I
la_oenb[11] I
la_oenb[120] I
la_oenb[121] I
la_oenb[122] I
la_oenb[123] I
la_oenb[124] I
la_oenb[125] I
la_oenb[126] I
la_oenb[127] I
la_oenb[12] I
la_oenb[13] I
la_oenb[14] I
la_oenb[15] I
la_oenb[16] I
la_oenb[17] I
la_oenb[18] I
la_oenb[19] I
la_oenb[1] I
la_oenb[20] I
la_oenb[21] I
la_oenb[22] I
la_oenb[23] I
la_oenb[24] I
la_oenb[25] I
la_oenb[26] I
la_oenb[27] I
la_oenb[28] I
la_oenb[29] I
la_oenb[2] I
la_oenb[30] I
la_oenb[31] I
la_oenb[32] I
la_oenb[33] I
la_oenb[34] I
la_oenb[35] I
la_oenb[36] I
la_oenb[37] I
la_oenb[38] I
la_oenb[39] I
la_oenb[3] I
la_oenb[40] I
la_oenb[41] I
la_oenb[42] I
la_oenb[43] I
la_oenb[44] I
la_oenb[45] I
la_oenb[46] I
la_oenb[47] I
la_oenb[48] I
la_oenb[49] I
la_oenb[4] I
la_oenb[50] I
la_oenb[51] I
la_oenb[52] I
la_oenb[53] I
la_oenb[54] I
la_oenb[55] I
la_oenb[56] I
la_oenb[57] I
la_oenb[58] I
la_oenb[59] I
la_oenb[5] I
la_oenb[60] I
la_oenb[61] I
la_oenb[62] I
la_oenb[63] I
la_oenb[64] I
la_oenb[65] I
la_oenb[66] I
la_oenb[67] I
la_oenb[68] I
la_oenb[69] I
la_oenb[6] I
la_oenb[70] I
la_oenb[71] I
la_oenb[72] I
la_oenb[73] I
la_oenb[74] I
la_oenb[75] I
la_oenb[76] I
la_oenb[77] I
la_oenb[78] I
la_oenb[79] I
la_oenb[7] I
la_oenb[80] I
la_oenb[81] I
la_oenb[82] I
la_oenb[83] I
la_oenb[84] I
la_oenb[85] I
la_oenb[86] I
la_oenb[87] I
la_oenb[88] I
la_oenb[89] I
la_oenb[8] I
la_oenb[90] I
la_oenb[91] I
la_oenb[92] I
la_oenb[93] I
la_oenb[94] I
la_oenb[95] I
la_oenb[96] I
la_oenb[97] I
la_oenb[98] I
la_oenb[99] I
la_oenb[9] I
user_clock2 I
user_irq[0] O
user_irq[1] O
user_irq[2] O
wb_clk_i I
wb_rst_i I
wbs_ack_o O
wbs_adr_i[0] I
wbs_adr_i[10] I
wbs_adr_i[11] I
wbs_adr_i[12] I
wbs_adr_i[13] I
wbs_adr_i[14] I
wbs_adr_i[15] I
wbs_adr_i[16] I
wbs_adr_i[17] I
wbs_adr_i[18] I
wbs_adr_i[19] I
wbs_adr_i[1] I
wbs_adr_i[20] I
wbs_adr_i[21] I
wbs_adr_i[22] I
wbs_adr_i[23] I
wbs_adr_i[24] I
wbs_adr_i[25] I
wbs_adr_i[26] I
wbs_adr_i[27] I
wbs_adr_i[28] I
wbs_adr_i[29] I
wbs_adr_i[2] I
wbs_adr_i[30] I
wbs_adr_i[31] I
wbs_adr_i[3] I
wbs_adr_i[4] I
wbs_adr_i[5] I
wbs_adr_i[6] I
wbs_adr_i[7] I
wbs_adr_i[8] I
wbs_adr_i[9] I
wbs_cyc_i I
wbs_dat_i[0] I
wbs_dat_i[10] I
wbs_dat_i[11] I
wbs_dat_i[12] I
wbs_dat_i[13] I
wbs_dat_i[14] I
wbs_dat_i[15] I
wbs_dat_i[16] I
wbs_dat_i[17] I
wbs_dat_i[18] I
wbs_dat_i[19] I
wbs_dat_i[1] I
wbs_dat_i[20] I
wbs_dat_i[21] I
wbs_dat_i[22] I
wbs_dat_i[23] I
wbs_dat_i[24] I
wbs_dat_i[25] I
wbs_dat_i[26] I
wbs_dat_i[27] I
wbs_dat_i[28] I
wbs_dat_i[29] I
wbs_dat_i[2] I
wbs_dat_i[30] I
wbs_dat_i[31] I
wbs_dat_i[3] I
wbs_dat_i[4] I
wbs_dat_i[5] I
wbs_dat_i[6] I
wbs_dat_i[7] I
wbs_dat_i[8] I
wbs_dat_i[9] I
wbs_dat_o[0] O
wbs_dat_o[10] O
wbs_dat_o[11] O
wbs_dat_o[12] O
wbs_dat_o[13] O
wbs_dat_o[14] O
wbs_dat_o[15] O
wbs_dat_o[16] O
wbs_dat_o[17] O
wbs_dat_o[18] O
wbs_dat_o[19] O
wbs_dat_o[1] O
wbs_dat_o[20] O
wbs_dat_o[21] O
wbs_dat_o[22] O
wbs_dat_o[23] O
wbs_dat_o[24] O
wbs_dat_o[25] O
wbs_dat_o[26] O
wbs_dat_o[27] O
wbs_dat_o[28] O
wbs_dat_o[29] O
wbs_dat_o[2] O
wbs_dat_o[30] O
wbs_dat_o[31] O
wbs_dat_o[3] O
wbs_dat_o[4] O
wbs_dat_o[5] O
wbs_dat_o[6] O
wbs_dat_o[7] O
wbs_dat_o[8] O
wbs_dat_o[9] O
wbs_sel_i[0] I
wbs_sel_i[1] I
wbs_sel_i[2] I
wbs_sel_i[3] I
wbs_stb_i I
wbs_we_i I

*D_NET *54 0.248606
*CONN
*P io_in[0] I
*I *664:io_in[0] I *D signal_generator
*CAP
1 io_in[0] 0.0018999
2 *664:io_in[0] 0.00633408
3 *54:17 0.121691
4 *54:15 0.117257
5 *664:io_in[0] *664:io_in[3] 0
6 *664:io_in[0] *129:25 0.00104063
7 *664:io_in[0] *156:11 0.000383352
8 *54:15 *135:13 0
9 *54:17 *65:9 0
10 *54:17 *108:13 0
*RES
1 io_in[0] *54:15 12.2469 
2 *54:15 *54:17 339.337 
3 *54:17 *664:io_in[0] 26.6681 
*END

*D_NET *55 0.37764
*CONN
*P io_in[10] I
*I *664:io_in[10] I *D signal_generator
*CAP
1 io_in[10] 0.000172676
2 *664:io_in[10] 0.0450037
3 *55:15 0.0450037
4 *55:13 0.0742906
5 *55:11 0.0742906
6 *55:9 0.0693529
7 *55:7 0.0695255
8 *55:7 io_out[10] 0
9 *55:9 io_out[10] 0
10 *55:9 *136:13 0
*RES
1 io_in[10] *55:7 0.598467 
2 *55:7 *55:9 210.914 
3 *55:9 *55:11 3.41 
4 *55:11 *55:13 237.616 
5 *55:13 *55:15 3.41 
6 *55:15 *664:io_in[10] 136.23 
*END

*D_NET *56 0.405684
*CONN
*P io_in[11] I
*I *664:io_in[11] I *D signal_generator
*CAP
1 io_in[11] 0.000164511
2 *664:io_in[11] 0.0403324
3 *56:15 0.0403324
4 *56:13 0.0834282
5 *56:11 0.0834282
6 *56:9 0.0789168
7 *56:7 0.0790813
8 *56:9 *137:13 0
*RES
1 io_in[11] *56:7 0.5311 
2 *56:7 *56:9 224.895 
3 *56:9 *56:11 3.41 
4 *56:11 *56:13 265.954 
5 *56:13 *56:15 3.41 
6 *56:15 *664:io_in[11] 122.249 
*END

*D_NET *57 0.52091
*CONN
*P io_in[12] I
*I *664:io_in[12] I *D signal_generator
*CAP
1 io_in[12] 0.000970434
2 *664:io_in[12] 0.121135
3 *57:15 0.121135
4 *57:13 0.0511878
5 *57:11 0.0521582
6 *57:11 *138:13 0
7 *57:13 *80:13 0.0383592
8 *57:13 *109:9 0.00110101
9 *57:13 *111:9 0.134863
*RES
1 io_in[12] *57:11 6.12503 
2 *57:11 *57:13 1677.05 
3 *57:13 *57:15 3.41 
4 *57:15 *664:io_in[12] 344.971 
*END

*D_NET *58 0.468361
*CONN
*P io_in[13] I
*I *664:io_in[13] I *D signal_generator
*CAP
1 io_in[13] 0.000159433
2 *664:io_in[13] 0.0460975
3 *58:15 0.0460975
4 *58:13 0.112133
5 *58:11 0.112133
6 *58:9 0.0757904
7 *58:7 0.0759498
8 *58:9 *139:13 0
*RES
1 io_in[13] *58:7 0.515433 
2 *58:7 *58:9 216.247 
3 *58:9 *58:11 3.41 
4 *58:11 *58:13 357.999 
5 *58:13 *58:15 3.41 
6 *58:15 *664:io_in[13] 130.897 
*END

*D_NET *59 0.233816
*CONN
*P io_in[14] I
*I *664:io_in[14] I *D signal_generator
*CAP
1 io_in[14] 0.0019467
2 *664:io_in[14] 0.00354387
3 *59:13 0.077716
4 *59:11 0.0761188
5 *59:11 io_out[14] 0
6 *59:13 *63:13 0.0744906
*RES
1 io_in[14] *59:11 9.01397 
2 *59:11 *59:13 290.883 
3 *59:13 *664:io_in[14] 13.3787 
*END

*D_NET *60 0.218019
*CONN
*P io_in[15] I
*I *664:io_in[15] I *D signal_generator
*CAP
1 io_in[15] 0.00415777
2 *664:io_in[15] 0.00120628
3 *60:13 0.066296
4 *60:11 0.0692474
5 *60:11 io_out[15] 0
6 *60:13 *62:13 0
7 *60:13 *113:9 0
8 *60:13 *117:9 0.077112
*RES
1 io_in[15] *60:11 15.5673 
2 *60:11 *60:13 264.143 
3 *60:13 *664:io_in[15] 6.8927 
*END

*D_NET *61 0.221835
*CONN
*P io_in[16] I
*I *664:io_in[16] I *D signal_generator
*CAP
1 io_in[16] 0.00332285
2 *664:io_in[16] 0.0023614
3 *61:13 0.050727
4 *61:11 0.0516885
5 *61:11 io_out[16] 0
6 *61:13 *67:13 0.0010105
7 *61:13 *114:9 0.112725
8 *61:13 *115:9 0
*RES
1 io_in[16] *61:11 12.5202 
2 *61:11 *61:13 237.297 
3 *61:13 *664:io_in[16] 9.9195 
*END

*D_NET *62 0.193803
*CONN
*P io_in[17] I
*I *664:io_in[17] I *D signal_generator
*CAP
1 io_in[17] 0.00419419
2 *664:io_in[17] 0.0014638
3 *62:13 0.0461736
4 *62:11 0.048904
5 *62:11 io_out[17] 0
6 *62:13 *113:9 0.0930675
7 *62:13 *117:9 0
8 *60:13 *62:13 0
*RES
1 io_in[17] *62:11 14.6618 
2 *62:11 *62:13 210.45 
3 *62:13 *664:io_in[17] 7.7575 
*END

*D_NET *63 0.205213
*CONN
*P io_in[18] I
*I *664:io_in[18] I *D signal_generator
*CAP
1 io_in[18] 0.00223571
2 *664:io_in[18] 0.00334871
3 *63:13 0.0277069
4 *63:11 0.0265939
5 *63:11 io_out[18] 0
6 *63:13 *118:9 0.070837
7 *59:13 *63:13 0.0744906
*RES
1 io_in[18] *63:11 9.23957 
2 *63:11 *63:13 183.497 
3 *63:13 *664:io_in[18] 13.2346 
*END

*D_NET *64 0.152689
*CONN
*P io_in[19] I
*I *664:io_in[19] I *D signal_generator
*CAP
1 io_in[19] 0.00458723
2 *664:io_in[19] 0.00106966
3 *64:13 0.0346487
4 *64:11 0.0381662
5 *64:11 io_out[19] 0
6 *64:11 *140:15 0
7 *64:13 *117:9 0.0742168
*RES
1 io_in[19] *64:11 15.8807 
2 *64:11 *64:13 156.864 
3 *64:13 *664:io_in[19] 6.60443 
*END

*D_NET *65 0.246596
*CONN
*P io_in[1] I
*I *664:io_in[1] I *D signal_generator
*CAP
1 io_in[1] 0.000151639
2 *664:io_in[1] 0.0415016
3 *65:15 0.0478018
4 *65:9 0.0816449
5 *65:7 0.0754964
6 *65:7 io_out[1] 0
7 *65:9 io_out[1] 0
8 *65:9 *146:13 0
9 *65:15 *75:15 0
10 *54:17 *65:9 0
*RES
1 io_in[1] *65:7 0.532667 
2 *65:7 *65:9 221.724 
3 *65:9 *65:15 26.2561 
4 *65:15 *664:io_in[1] 125.42 
*END

*D_NET *66 0.127567
*CONN
*P io_in[20] I
*I *664:io_in[20] I *D signal_generator
*CAP
1 io_in[20] 0.00145373
2 *664:io_in[20] 0.00424091
3 *66:15 0.0350609
4 *66:13 0.0322737
5 *66:13 io_out[20] 0
6 *66:15 io_out[21] 0
7 *66:15 *116:9 0.0545378
*RES
1 io_in[20] *66:13 7.35957 
2 *66:13 *66:15 129.911 
3 *66:15 *664:io_in[20] 15.2524 
*END

*D_NET *67 0.0347195
*CONN
*P io_in[21] I
*I *664:io_in[21] I *D signal_generator
*CAP
1 io_in[21] 0.0146236
2 *664:io_in[21] 0.00222673
3 *67:13 0.0168503
4 *67:13 io_out[21] 0
5 *67:13 *114:7 8.36199e-06
6 *67:13 *115:9 0
7 *67:13 *144:15 0
8 *61:13 *67:13 0.0010105
*RES
1 io_in[21] *67:13 49.6204 
2 *67:13 *664:io_in[21] 10.0636 
*END

*D_NET *68 0.0179836
*CONN
*P io_in[22] I
*I *664:io_in[22] I *D signal_generator
*CAP
1 io_in[22] 0.0089918
2 *664:io_in[22] 0.0089918
3 *664:io_in[22] io_out[22] 0
4 *664:io_in[22] *120:7 0
*RES
1 io_in[22] *664:io_in[22] 32.8173 
*END

*D_NET *69 0.0267574
*CONN
*P io_in[23] I
*I *664:io_in[23] I *D signal_generator
*CAP
1 io_in[23] 0.0101944
2 *664:io_in[23] 0.0101944
3 *664:io_in[23] io_oeb[23] 0.00571286
4 *664:io_in[23] io_out[23] 0
5 *664:io_in[23] *124:9 0.000519182
6 *664:io_in[23] *152:7 0.000136649
*RES
1 io_in[23] *664:io_in[23] 38.9758 
*END

*D_NET *70 0.027799
*CONN
*P io_in[24] I
*I *664:io_in[24] I *D signal_generator
*CAP
1 io_in[24] 0.0137505
2 *664:io_in[24] 0.0137505
3 *664:io_in[24] io_out[23] 0
4 *664:io_in[24] io_out[24] 0
5 *664:io_in[24] io_out[26] 0
6 *664:io_in[24] *560:17 0.000298114
*RES
1 io_in[24] *664:io_in[24] 48.7722 
*END

*D_NET *71 0.0254345
*CONN
*P io_in[25] I
*I *664:io_in[25] I *D signal_generator
*CAP
1 io_in[25] 0.0125833
2 *664:io_in[25] 0.0125833
3 *664:io_in[25] io_out[25] 0
4 *664:io_in[25] *561:5 0.00026784
*RES
1 io_in[25] *664:io_in[25] 45.3976 
*END

*D_NET *72 0.035445
*CONN
*P io_in[26] I
*I *664:io_in[26] I *D signal_generator
*CAP
1 io_in[26] 0.0113942
2 *664:io_in[26] 0.0113942
3 *664:io_in[26] io_oeb[26] 0.00714922
4 *664:io_in[26] io_out[26] 0
5 *664:io_in[26] wbs_ack_o 0.000305038
6 *664:io_in[26] *124:9 0.0013069
7 *664:io_in[26] *125:9 0.00132303
8 *664:io_in[26] *152:9 0.00105953
9 *664:io_in[26] *558:11 0
10 *664:io_in[26] *559:11 0.000117626
11 *664:io_in[26] *572:11 0.000560929
12 *664:io_in[26] *593:11 2.10638e-05
13 *664:io_in[26] *594:11 0.000175586
14 *664:io_in[26] *626:23 0.00044886
15 *664:io_in[26] *662:15 0.000188936
*RES
1 io_in[26] *664:io_in[26] 42.3771 
*END

*D_NET *73 0.243081
*CONN
*P io_in[2] I
*I *664:io_in[2] I *D signal_generator
*CAP
1 io_in[2] 0.000160535
2 *664:io_in[2] 0.0403543
3 *73:15 0.0473381
4 *73:9 0.0810258
5 *73:7 0.0742025
6 *73:7 io_out[2] 0
7 *73:9 io_out[2] 0
8 *73:9 *154:13 0
*RES
1 io_in[2] *73:7 0.557733 
2 *73:7 *73:9 224.895 
3 *73:9 *73:15 28.9194 
4 *73:15 *664:io_in[2] 122.249 
*END

*D_NET *74 0.245019
*CONN
*P io_in[3] I
*I *664:io_in[3] I *D signal_generator
*CAP
1 io_in[3] 0.000168001
2 *664:io_in[3] 0.00965014
3 *74:9 0.121866
4 *74:7 0.112384
5 *664:io_in[3] *76:9 0.000951036
6 *664:io_in[3] *156:11 0
7 *664:io_in[3] *157:13 0
8 *74:7 io_out[3] 0
9 *74:9 io_out[3] 0
10 *74:9 *155:25 0
11 *664:io_in[0] *664:io_in[3] 0
*RES
1 io_in[3] *74:7 0.5828 
2 *74:7 *74:9 340.634 
3 *74:9 *664:io_in[3] 38.0922 
*END

*D_NET *75 0.255861
*CONN
*P io_in[4] I
*I *664:io_in[4] I *D signal_generator
*CAP
1 io_in[4] 0.000190421
2 *664:io_in[4] 0.0410778
3 *75:15 0.0496308
4 *75:9 0.0866623
5 *75:7 0.0782997
6 *75:9 *156:13 0
7 *65:15 *75:15 0
*RES
1 io_in[4] *75:7 0.607867 
2 *75:7 *75:9 222.733 
3 *75:9 *75:15 34.2461 
4 *75:15 *664:io_in[4] 124.411 
*END

*D_NET *76 0.242111
*CONN
*P io_in[5] I
*I *664:io_in[5] I *D signal_generator
*CAP
1 io_in[5] 0.000156771
2 *664:io_in[5] 0.00396379
3 *76:9 0.117182
4 *76:7 0.113375
5 *664:io_in[5] *128:9 0.000189838
6 *664:io_in[5] *129:21 0.000506893
7 *664:io_in[5] *155:19 0
8 *664:io_in[5] *157:11 0.00578592
9 *76:7 io_out[5] 0
10 *76:9 io_out[5] 0
11 *76:9 *157:13 0
12 *664:io_in[3] *76:9 0.000951036
*RES
1 io_in[5] *76:7 0.5499 
2 *76:7 *76:9 344.67 
3 *76:9 *664:io_in[5] 22.4444 
*END

*D_NET *77 0.241731
*CONN
*P io_in[6] I
*I *664:io_in[6] I *D signal_generator
*CAP
1 io_in[6] 0.00473693
2 *664:io_in[6] 0.113453
3 *77:15 0.11819
4 *77:15 io_oeb[6] 0.00535057
5 *77:15 io_out[6] 0
6 *77:15 *158:13 0
*RES
1 io_in[6] *77:15 25.0341 
2 *77:15 *664:io_in[6] 344.935 
*END

*D_NET *78 0.400911
*CONN
*P io_in[7] I
*I *664:io_in[7] I *D signal_generator
*CAP
1 io_in[7] 0.000875691
2 *664:io_in[7] 0.113615
3 *78:15 0.113615
4 *78:13 0.0154049
5 *78:11 0.0162806
6 *78:11 io_out[7] 0
7 *78:11 *159:13 0
8 *78:13 io_oeb[6] 0.00517411
9 *78:13 *79:13 0.00126603
10 *78:13 *80:13 0.00108902
11 *78:13 *132:9 0.0698316
12 *78:13 *134:9 0.0637589
*RES
1 io_in[7] *78:11 5.89943 
2 *78:11 *78:13 150.046 
3 *78:13 *78:15 3.41 
4 *78:15 *664:io_in[7] 345.223 
*END

*D_NET *79 0.406494
*CONN
*P io_in[8] I
*I *664:io_in[8] I *D signal_generator
*CAP
1 io_in[8] 0.000885757
2 *664:io_in[8] 0.121047
3 *79:15 0.121047
4 *79:13 0.0327592
5 *79:11 0.033645
6 *79:11 *160:13 0
7 *79:13 io_oeb[6] 0.000593356
8 *79:13 *109:9 0.075069
9 *79:13 *134:9 0.0201807
10 *78:13 *79:13 0.00126603
*RES
1 io_in[8] *79:11 5.8963 
2 *79:11 *79:13 1017.09 
3 *79:13 *79:15 3.41 
4 *79:15 *664:io_in[8] 345.187 
*END

*D_NET *80 0.487449
*CONN
*P io_in[9] I
*I *664:io_in[9] I *D signal_generator
*CAP
1 io_in[9] 0.00102403
2 *664:io_in[9] 0.120981
3 *80:15 0.120981
4 *80:13 0.0426316
5 *80:11 0.0436557
6 *80:11 *161:13 0
7 *80:13 *111:9 0.0212137
8 *80:13 *134:9 0.0975142
9 *57:13 *80:13 0.0383592
10 *78:13 *80:13 0.00108902
*RES
1 io_in[9] *80:11 6.14697 
2 *80:11 *80:13 207.574 
3 *80:13 *80:15 3.41 
4 *80:15 *664:io_in[9] 344.935 
*END

*D_NET *108 0.260724
*CONN
*P io_oeb[0] O
*I *664:io_oeb[0] O *D signal_generator
*CAP
1 io_oeb[0] 0.000171191
2 *664:io_oeb[0] 0.00354646
3 *108:13 0.117407
4 *108:11 0.120782
5 *108:11 *127:17 0.000658222
6 *108:11 *128:9 0.000151879
7 *108:11 *129:21 0.000211218
8 *108:11 *135:11 0.0080721
9 *108:11 *146:11 0.00776284
10 *108:11 *154:11 0
11 *108:11 *155:19 6.51282e-05
12 *108:11 *155:21 0.00189682
13 *108:13 *135:13 0
14 *54:17 *108:13 0
*RES
1 *664:io_oeb[0] *108:11 28.4102 
2 *108:11 *108:13 344.67 
3 *108:13 io_oeb[0] 0.5734 
*END

*D_NET *109 0.495041
*CONN
*P io_oeb[10] O
*I *664:io_oeb[10] O *D signal_generator
*CAP
1 io_oeb[10] 0.000892655
2 *664:io_oeb[10] 0.121131
3 *109:9 0.0260599
4 *109:7 0.0251673
5 *109:5 0.121131
6 io_oeb[10] *136:13 0
7 *109:9 *111:9 0.103415
8 *109:9 *134:9 0.0210749
9 *57:13 *109:9 0.00110101
10 *79:13 *109:9 0.075069
*RES
1 *664:io_oeb[10] *109:5 345.115 
2 *109:5 *109:7 3.41 
3 *109:7 *109:9 1340.09 
4 *109:9 io_oeb[10] 5.99657 
*END

*D_NET *110 0.501391
*CONN
*P io_oeb[11] O
*I *664:io_oeb[11] O *D signal_generator
*CAP
1 io_oeb[11] 0.0001722
2 *664:io_oeb[11] 0.00110478
3 *110:13 0.113413
4 *110:11 0.113241
5 *110:9 0.0384753
6 *110:7 0.03958
7 io_oeb[11] io_out[11] 0
8 io_oeb[11] *137:13 0
9 *110:9 *112:9 0.120248
10 *110:9 *133:9 0.0751572
11 *110:9 *160:9 0
12 *110:13 *137:13 0
*RES
1 *664:io_oeb[11] *110:7 6.8927 
2 *110:7 *110:9 263.61 
3 *110:9 *110:11 3.41 
4 *110:11 *110:13 343.661 
5 *110:13 io_oeb[11] 0.5969 
*END

*D_NET *111 0.544807
*CONN
*P io_oeb[12] O
*I *664:io_oeb[12] O *D signal_generator
*CAP
1 io_oeb[12] 0.000879934
2 *664:io_oeb[12] 0.113768
3 *111:9 0.0288898
4 *111:7 0.0280099
5 *111:5 0.113768
6 io_oeb[12] io_out[12] 0
7 io_oeb[12] *138:13 0
8 *57:13 *111:9 0.134863
9 *80:13 *111:9 0.0212137
10 *109:9 *111:9 0.103415
*RES
1 *664:io_oeb[12] *111:5 345.043 
2 *111:5 *111:7 3.41 
3 *111:7 *111:9 1663.7 
4 *111:9 io_oeb[12] 6.04043 
*END

*D_NET *112 0.524887
*CONN
*P io_oeb[13] O
*I *664:io_oeb[13] O *D signal_generator
*CAP
1 io_oeb[13] 0.000169551
2 *664:io_oeb[13] 0.00108723
3 *112:13 0.11709
4 *112:11 0.11692
5 *112:9 0.0841426
6 *112:7 0.0852298
7 io_oeb[13] io_out[13] 0
8 io_oeb[13] *139:13 0
9 *112:9 *137:9 0
10 *112:9 *139:9 0
11 *112:9 *160:9 0
12 *112:13 *139:13 0
13 *110:9 *112:9 0.120248
*RES
1 *664:io_oeb[13] *112:7 6.74857 
2 *112:7 *112:9 355.655 
3 *112:9 *112:11 3.41 
4 *112:11 *112:13 343.805 
5 *112:13 io_oeb[13] 0.581233 
*END

*D_NET *113 0.24527
*CONN
*P io_oeb[14] O
*I *664:io_oeb[14] O *D signal_generator
*CAP
1 io_oeb[14] 0.00381697
2 *664:io_oeb[14] 0.00155749
3 *113:9 0.0745438
4 *113:7 0.0722844
5 io_oeb[14] io_out[14] 0
6 *60:13 *113:9 0
7 *62:13 *113:9 0.0930675
*RES
1 *664:io_oeb[14] *113:7 7.90163 
2 *113:7 *113:9 293.759 
3 *113:9 io_oeb[14] 14.513 
*END

*D_NET *114 0.23974
*CONN
*P io_oeb[15] O
*I *664:io_oeb[15] O *D signal_generator
*CAP
1 io_oeb[15] 0.00309088
2 *664:io_oeb[15] 0.00242646
3 *114:9 0.0610772
4 *114:7 0.0604128
5 io_oeb[15] io_out[15] 0
6 *114:9 *115:9 0
7 *61:13 *114:9 0.112725
8 *67:13 *114:7 8.36199e-06
*RES
1 *664:io_oeb[15] *114:7 10.0636 
2 *114:7 *114:9 266.913 
3 *114:9 io_oeb[15] 12.3306 
*END

*D_NET *115 0.178503
*CONN
*P io_oeb[16] O
*I *664:io_oeb[16] O *D signal_generator
*CAP
1 io_oeb[16] 0.00279997
2 *664:io_oeb[16] 0.00264622
3 *115:9 0.0866054
4 *115:7 0.0864517
5 io_oeb[16] io_out[16] 0
6 *61:13 *115:9 0
7 *67:13 *115:9 0
8 *114:9 *115:9 0
*RES
1 *664:io_oeb[16] *115:7 11.2167 
2 *115:7 *115:9 240.173 
3 *115:9 io_oeb[16] 11.2637 
*END

*D_NET *116 0.226651
*CONN
*P io_oeb[17] O
*I *664:io_oeb[17] O *D signal_generator
*CAP
1 io_oeb[17] 0.00145833
2 *664:io_oeb[17] 0.00417021
3 *116:9 0.0347577
4 *116:7 0.0374696
5 io_oeb[17] io_out[17] 0
6 *116:9 io_out[21] 0
7 *116:9 *141:9 0.094257
8 *116:9 *147:9 0
9 *66:15 *116:9 0.0545378
*RES
1 *664:io_oeb[17] *116:7 15.3966 
2 *116:7 *116:9 212.794 
3 *116:9 io_oeb[17] 7.82487 
*END

*D_NET *117 0.210442
*CONN
*P io_oeb[18] O
*I *664:io_oeb[18] O *D signal_generator
*CAP
1 io_oeb[18] 0.00447372
2 *664:io_oeb[18] 0.00113797
3 *117:9 0.0284184
4 *117:7 0.0250827
5 io_oeb[18] io_out[18] 0
6 *60:13 *117:9 0.077112
7 *62:13 *117:9 0
8 *64:13 *117:9 0.0742168
*RES
1 *664:io_oeb[18] *117:7 6.74857 
2 *117:7 *117:9 186.48 
3 *117:9 io_oeb[18] 15.6911 
*END

*D_NET *118 0.149273
*CONN
*P io_oeb[19] O
*I *664:io_oeb[19] O *D signal_generator
*CAP
1 io_oeb[19] 0.00241278
2 *664:io_oeb[19] 0.00337357
3 *118:9 0.0358446
4 *118:7 0.0368054
5 io_oeb[19] io_out[19] 0
6 *63:13 *118:9 0.070837
*RES
1 *664:io_oeb[19] *118:7 13.0904 
2 *118:7 *118:9 159.101 
3 *118:9 io_oeb[19] 10.46 
*END

*D_NET *119 0.249085
*CONN
*P io_oeb[1] O
*I *664:io_oeb[1] O *D signal_generator
*CAP
1 io_oeb[1] 0.000172676
2 *664:io_oeb[1] 0.00478635
3 *119:13 0.113854
4 *119:11 0.118468
5 io_oeb[1] io_out[1] 0
6 io_oeb[1] *146:13 0
7 *119:11 *127:15 0.00212851
8 *119:11 *129:21 0.000303759
9 *119:11 *146:11 0.00937167
10 *119:11 *154:11 0
11 *119:13 *146:13 0
*RES
1 *664:io_oeb[1] *119:11 30.7853 
2 *119:11 *119:13 344.958 
3 *119:13 io_oeb[1] 0.598467 
*END

*D_NET *120 0.136754
*CONN
*P io_oeb[20] O
*I *664:io_oeb[20] O *D signal_generator
*CAP
1 io_oeb[20] 0.000899597
2 *664:io_oeb[20] 0.00442501
3 *120:9 0.0162776
4 *120:7 0.0198031
5 io_oeb[20] io_out[20] 0
6 io_oeb[20] *142:15 2.95288e-05
7 *120:7 io_out[22] 0.00011956
8 *120:7 *121:15 0
9 *120:9 io_oeb[21] 0.00602705
10 *120:9 io_out[21] 0.000570526
11 *120:9 *144:17 0.0256406
12 *120:9 *145:17 0.000179824
13 *120:9 *147:9 0.0627812
14 *664:io_in[22] *120:7 0
*RES
1 *664:io_oeb[20] *120:7 16.5496 
2 *120:7 *120:9 132.894 
3 *120:9 io_oeb[20] 5.8681 
*END

*D_NET *121 0.0385151
*CONN
*P io_oeb[21] O
*I *664:io_oeb[21] O *D signal_generator
*CAP
1 io_oeb[21] 0.00933024
2 *664:io_oeb[21] 0.00421803
3 *121:15 0.0114473
4 *121:7 0.00633511
5 io_oeb[21] io_out[21] 0
6 io_oeb[21] io_out[22] 4.07755e-05
7 io_oeb[21] *145:15 1.40863e-05
8 *121:15 io_oeb[22] 4.43723e-05
9 *121:15 io_out[21] 0.000739233
10 *121:15 io_out[22] 0.000318924
11 *120:7 *121:15 0
12 *120:9 io_oeb[21] 0.00602705
*RES
1 *664:io_oeb[21] *121:7 16.0091 
2 *121:7 *121:15 43.1792 
3 *121:15 io_oeb[21] 39.2115 
*END

*D_NET *122 0.0209286
*CONN
*P io_oeb[22] O
*I *664:io_oeb[22] O *D signal_generator
*CAP
1 io_oeb[22] 0.00788468
2 *664:io_oeb[22] 0.00788468
3 io_oeb[22] io_out[22] 0.00511489
4 *121:15 io_oeb[22] 4.43723e-05
*RES
1 *664:io_oeb[22] io_oeb[22] 35.9287 
*END

*D_NET *123 0.0226438
*CONN
*P io_oeb[23] O
*I *664:io_oeb[23] O *D signal_generator
*CAP
1 io_oeb[23] 0.00830039
2 *664:io_oeb[23] 0.00830039
3 io_oeb[23] io_out[23] 0
4 io_oeb[23] *124:9 0.000168959
5 io_oeb[23] *125:7 3.97322e-05
6 io_oeb[23] *152:9 0.000121492
7 *664:io_in[23] io_oeb[23] 0.00571286
*RES
1 *664:io_oeb[23] io_oeb[23] 36.1402 
*END

*D_NET *124 0.0360542
*CONN
*P io_oeb[24] O
*I *664:io_oeb[24] O *D signal_generator
*CAP
1 io_oeb[24] 0.00449459
2 *664:io_oeb[24] 0.000699926
3 *124:9 0.00710421
4 *124:7 0.00330955
5 io_oeb[24] io_out[24] 0
6 io_oeb[24] *559:17 0.000982972
7 *124:9 *125:9 0.00761969
8 *124:9 *151:9 0.00114548
9 *124:9 *152:9 0.00870274
10 io_oeb[23] *124:9 0.000168959
11 *664:io_in[23] *124:9 0.000519182
12 *664:io_in[26] *124:9 0.0013069
*RES
1 *664:io_oeb[24] *124:7 5.55947 
2 *124:7 *124:9 133.696 
3 *124:9 io_oeb[24] 16.8457 
*END

*D_NET *125 0.0283526
*CONN
*P io_oeb[25] O
*I *664:io_oeb[25] O *D signal_generator
*CAP
1 io_oeb[25] 0.00500165
2 *664:io_oeb[25] 0.000610472
3 *125:9 0.00871919
4 *125:7 0.00432801
5 io_oeb[25] io_out[25] 0
6 *125:9 *152:9 0.000710786
7 *125:9 *583:5 0
8 *125:9 *616:5 0
9 io_oeb[23] *125:7 3.97322e-05
10 *664:io_in[26] *125:9 0.00132303
11 *124:9 *125:9 0.00761969
*RES
1 *664:io_oeb[25] *125:7 5.4874 
2 *125:7 *125:9 114.268 
3 *125:9 io_oeb[25] 16.9993 
*END

*D_NET *126 0.0266117
*CONN
*P io_oeb[26] O
*I *664:io_oeb[26] O *D signal_generator
*CAP
1 io_oeb[26] 0.00958314
2 *664:io_oeb[26] 0.00958314
3 io_oeb[26] io_out[26] 0
4 io_oeb[26] *616:5 0.000296154
5 io_oeb[26] *637:21 0
6 io_oeb[26] *658:15 0
7 *664:io_in[26] io_oeb[26] 0.00714922
*RES
1 *664:io_oeb[26] io_oeb[26] 39.2343 
*END

*D_NET *127 0.257142
*CONN
*P io_oeb[2] O
*I *664:io_oeb[2] O *D signal_generator
*CAP
1 io_oeb[2] 0.000153951
2 *664:io_oeb[2] 0.00359883
3 *127:21 0.117391
4 *127:19 0.117237
5 *127:17 0.00146902
6 *127:15 0.00506786
7 io_oeb[2] io_out[2] 0
8 io_oeb[2] *154:13 0
9 *127:15 *135:11 7.18691e-05
10 *127:15 *154:11 0
11 *127:15 *155:19 0.00324043
12 *127:17 *128:9 0.000968786
13 *127:17 *129:21 0.00124555
14 *127:17 *135:11 0.000492891
15 *127:17 *155:21 0.00341819
16 *127:21 *154:13 0
17 *108:11 *127:17 0.000658222
18 *119:11 *127:15 0.00212851
*RES
1 *664:io_oeb[2] *127:15 27.3599 
2 *127:15 *127:17 57.8036 
3 *127:17 *127:19 3.41 
4 *127:19 *127:21 344.49 
5 *127:21 io_oeb[2] 0.517 
*END

*D_NET *128 0.259892
*CONN
*P io_oeb[3] O
*I *664:io_oeb[3] O *D signal_generator
*CAP
1 io_oeb[3] 0.000160428
2 *664:io_oeb[3] 0.000898959
3 *128:13 0.117354
4 *128:11 0.117194
5 *128:9 0.00485881
6 *128:7 0.00575777
7 *128:7 *129:19 0.000626676
8 *128:9 *129:21 0.0108434
9 *128:9 *135:11 0.000591019
10 *128:9 *146:11 0.000296154
11 *128:13 *155:25 0
12 *664:io_in[5] *128:9 0.000189838
13 *108:11 *128:9 0.000151879
14 *127:17 *128:9 0.000968786
*RES
1 *664:io_oeb[3] *128:7 6.20807 
2 *128:7 *128:9 154.946 
3 *128:9 *128:11 3.41 
4 *128:11 *128:13 344.345 
5 *128:13 io_oeb[3] 0.542067 
*END

*D_NET *129 0.256334
*CONN
*P io_oeb[4] O
*I *664:io_oeb[4] O *D signal_generator
*CAP
1 io_oeb[4] 0.000163335
2 *664:io_oeb[4] 0.00289391
3 *129:25 0.113427
4 *129:23 0.113264
5 *129:21 0.00366115
6 *129:19 0.00655506
7 io_oeb[4] io_out[4] 0
8 io_oeb[4] *156:13 0
9 *129:19 *130:11 0.000356763
10 *129:21 *135:11 0.000243793
11 *129:21 *146:11 0.000445911
12 *129:21 *155:21 0.0005457
13 *129:25 *156:13 0
14 *664:io_in[0] *129:25 0.00104063
15 *664:io_in[5] *129:21 0.000506893
16 *108:11 *129:21 0.000211218
17 *119:11 *129:21 0.000303759
18 *127:17 *129:21 0.00124555
19 *128:7 *129:19 0.000626676
20 *128:9 *129:21 0.0108434
*RES
1 *664:io_oeb[4] *129:19 19.6425 
2 *129:19 *129:21 133.089 
3 *129:21 *129:23 3.41 
4 *129:23 *129:25 344.418 
5 *129:25 io_oeb[4] 0.567133 
*END

*D_NET *130 0.249842
*CONN
*P io_oeb[5] O
*I *664:io_oeb[5] O *D signal_generator
*CAP
1 io_oeb[5] 0.000151412
2 *664:io_oeb[5] 0.00398133
3 *130:13 0.117546
4 *130:11 0.121376
5 io_oeb[5] io_out[5] 0
6 io_oeb[5] *157:13 0
7 *130:11 *155:19 1.88638e-05
8 *130:11 *157:11 0.00641268
9 *130:13 *157:13 0
10 *129:19 *130:11 0.000356763
*RES
1 *664:io_oeb[5] *130:11 24.6064 
2 *130:11 *130:13 344.958 
3 *130:13 io_oeb[5] 0.509167 
*END

*D_NET *131 0.259147
*CONN
*P io_oeb[6] O
*I *664:io_oeb[6] O *D signal_generator
*CAP
1 io_oeb[6] 0.00300874
2 *664:io_oeb[6] 0.121006
3 *131:5 0.124014
4 io_oeb[6] *158:13 0
5 *77:15 io_oeb[6] 0.00535057
6 *78:13 io_oeb[6] 0.00517411
7 *79:13 io_oeb[6] 0.000593356
*RES
1 *664:io_oeb[6] *131:5 345.079 
2 *131:5 io_oeb[6] 22.4647 
*END

*D_NET *132 0.375529
*CONN
*P io_oeb[7] O
*I *664:io_oeb[7] O *D signal_generator
*CAP
1 io_oeb[7] 0.000789066
2 *664:io_oeb[7] 0.121133
3 *132:9 0.031487
4 *132:7 0.0306979
5 *132:5 0.121133
6 io_oeb[7] *159:13 0
7 *132:9 *134:9 0.000457365
8 *78:13 *132:9 0.0698316
*RES
1 *664:io_oeb[7] *132:5 345.367 
2 *132:5 *132:7 3.41 
3 *132:7 *132:9 147.702 
4 *132:9 io_oeb[7] 5.5955 
*END

*D_NET *133 0.381192
*CONN
*P io_oeb[8] O
*I *664:io_oeb[8] O *D signal_generator
*CAP
1 io_oeb[8] 0.000154438
2 *664:io_oeb[8] 0.00113871
3 *133:13 0.113513
4 *133:11 0.113358
5 *133:9 0.0383661
6 *133:7 0.0395048
7 io_oeb[8] io_out[8] 0
8 io_oeb[8] *160:13 0
9 *133:7 *158:13 0
10 *133:9 *160:9 0
11 *133:13 *160:13 0
12 *110:9 *133:9 0.0751572
*RES
1 *664:io_oeb[8] *133:7 7.03683 
2 *133:7 *133:9 176.147 
3 *133:9 *133:11 3.41 
4 *133:11 *133:13 343.517 
5 *133:13 io_oeb[8] 0.542067 
*END

*D_NET *134 0.487912
*CONN
*P io_oeb[9] O
*I *664:io_oeb[9] O *D signal_generator
*CAP
1 io_oeb[9] 0.000910646
2 *664:io_oeb[9] 0.113623
3 *134:9 0.02884
4 *134:7 0.0279293
5 *134:5 0.113623
6 io_oeb[9] *161:13 0
7 *78:13 *134:9 0.0637589
8 *79:13 *134:9 0.0201807
9 *80:13 *134:9 0.0975142
10 *109:9 *134:9 0.0210749
11 *132:9 *134:9 0.000457365
*RES
1 *664:io_oeb[9] *134:5 345.079 
2 *134:5 *134:7 3.41 
3 *134:7 *134:9 205.124 
4 *134:9 io_oeb[9] 5.99343 
*END

*D_NET *135 0.261176
*CONN
*P io_out[0] O
*I *664:io_out[0] O *D signal_generator
*CAP
1 io_out[0] 0.000167557
2 *664:io_out[0] 0.00480104
3 *135:13 0.121051
4 *135:11 0.125685
5 *135:11 *154:11 0
6 *54:15 *135:13 0
7 *108:11 *135:11 0.0080721
8 *108:13 *135:13 0
9 *127:15 *135:11 7.18691e-05
10 *127:17 *135:11 0.000492891
11 *128:9 *135:11 0.000591019
12 *129:21 *135:11 0.000243793
*RES
1 *664:io_out[0] *135:11 27.3825 
2 *135:11 *135:13 344.526 
3 *135:13 io_out[0] 0.5405 
*END

*D_NET *136 0.393542
*CONN
*P io_out[10] O
*I *664:io_out[10] O *D signal_generator
*CAP
1 io_out[10] 0.00015649
2 *664:io_out[10] 0.00180721
3 *136:13 0.117818
4 *136:11 0.117661
5 *136:9 0.0771457
6 *136:7 0.0789529
7 *136:9 *138:9 0
8 io_oeb[10] *136:13 0
9 *55:7 io_out[10] 0
10 *55:9 io_out[10] 0
11 *55:9 *136:13 0
*RES
1 *664:io_out[10] *136:7 8.91057 
2 *136:7 *136:9 236.338 
3 *136:9 *136:11 3.41 
4 *136:11 *136:13 341.643 
5 *136:13 io_out[10] 0.524833 
*END

*D_NET *137 0.507695
*CONN
*P io_out[11] O
*I *664:io_out[11] O *D signal_generator
*CAP
1 io_out[11] 0.000168392
2 *664:io_out[11] 0.000710635
3 *137:13 0.116238
4 *137:11 0.11607
5 *137:9 0.0386653
6 *137:7 0.039376
7 *137:9 *139:9 0.120791
8 *137:9 *160:9 0.075676
9 io_oeb[11] io_out[11] 0
10 io_oeb[11] *137:13 0
11 *56:9 *137:13 0
12 *110:13 *137:13 0
13 *112:9 *137:9 0
*RES
1 *664:io_out[11] *137:7 5.73963 
2 *137:7 *137:9 264.782 
3 *137:9 *137:11 3.41 
4 *137:11 *137:13 344.814 
5 *137:13 io_out[11] 0.564 
*END

*D_NET *138 0.413092
*CONN
*P io_out[12] O
*I *664:io_out[12] O *D signal_generator
*CAP
1 io_out[12] 0.000180103
2 *664:io_out[12] 0.0021838
3 *138:13 0.112406
4 *138:11 0.112226
5 *138:9 0.0919556
6 *138:7 0.0941394
7 io_oeb[12] io_out[12] 0
8 io_oeb[12] *138:13 0
9 *57:11 *138:13 0
10 *136:9 *138:9 0
*RES
1 *664:io_out[12] *138:7 9.9195 
2 *138:7 *138:9 293.227 
3 *138:9 *138:11 3.41 
4 *138:11 *138:13 340.634 
5 *138:13 io_out[12] 0.603167 
*END

*D_NET *139 0.523216
*CONN
*P io_out[13] O
*I *664:io_out[13] O *D signal_generator
*CAP
1 io_out[13] 0.000162295
2 *664:io_out[13] 0.000722624
3 *139:13 0.11609
4 *139:11 0.115928
5 *139:9 0.0843997
6 *139:7 0.0851224
7 io_oeb[13] io_out[13] 0
8 io_oeb[13] *139:13 0
9 *58:9 *139:13 0
10 *112:9 *139:9 0
11 *112:13 *139:13 0
12 *137:9 *139:9 0.120791
*RES
1 *664:io_out[13] *139:7 5.5955 
2 *139:7 *139:9 356.827 
3 *139:9 *139:11 3.41 
4 *139:11 *139:13 344.958 
5 *139:13 io_out[13] 0.548333 
*END

*D_NET *140 0.253855
*CONN
*P io_out[14] O
*I *664:io_out[14] O *D signal_generator
*CAP
1 io_out[14] 0.000961453
2 *664:io_out[14] 0.00473084
3 *140:17 0.0369264
4 *140:15 0.0362001
5 *140:9 0.0252261
6 *140:7 0.0297218
7 *140:9 *142:9 0.000272445
8 *140:9 *143:9 0.0407968
9 *140:9 *143:17 0.00689743
10 *140:9 *147:9 0.00624436
11 *140:17 *141:9 0
12 *140:17 *142:17 0.0484227
13 *140:17 *143:17 0.0174549
14 io_oeb[14] io_out[14] 0
15 *59:11 io_out[14] 0
16 *64:11 *140:15 0
*RES
1 *664:io_out[14] *140:7 16.0091 
2 *140:7 *140:9 702.589 
3 *140:9 *140:15 7.4075 
4 *140:15 *140:17 168.796 
5 *140:17 io_out[14] 6.136 
*END

*D_NET *141 0.228707
*CONN
*P io_out[15] O
*I *664:io_out[15] O *D signal_generator
*CAP
1 io_out[15] 0.00123475
2 *664:io_out[15] 0.00431461
3 *141:9 0.0629104
4 *141:7 0.0659903
5 *141:9 *143:17 0
6 *141:9 *147:9 0
7 io_oeb[15] io_out[15] 0
8 *60:11 io_out[15] 0
9 *116:9 *141:9 0.094257
10 *140:17 *141:9 0
*RES
1 *664:io_out[15] *141:7 15.5407 
2 *141:7 *141:9 265.315 
3 *141:9 io_out[15] 7.05877 
*END

*D_NET *142 0.245629
*CONN
*P io_out[16] O
*I *664:io_out[16] O *D signal_generator
*CAP
1 io_out[16] 0.000903789
2 *664:io_out[16] 0.00447675
3 *142:17 0.0223719
4 *142:15 0.0216911
5 *142:9 0.0177509
6 *142:7 0.0220046
7 *142:9 io_out[21] 0.000284316
8 *142:9 *143:9 0.0473342
9 *142:9 *143:17 0.000222486
10 *142:9 *144:9 0.00163651
11 *142:9 *147:9 0.0192842
12 *142:15 io_out[20] 3.47016e-05
13 *142:15 *143:15 0
14 *142:17 *143:17 0.00613401
15 *142:17 *144:17 0.0326476
16 *142:17 *147:9 0.000126851
17 io_oeb[16] io_out[16] 0
18 io_oeb[20] *142:15 2.95288e-05
19 *61:11 io_out[16] 0
20 *140:9 *142:9 0.000272445
21 *140:17 *142:17 0.0484227
*RES
1 *664:io_out[16] *142:7 16.1533 
2 *142:7 *142:9 586.018 
3 *142:9 *142:15 7.4075 
4 *142:15 *142:17 135.557 
5 *142:17 io_out[16] 6.0326 
*END

*D_NET *143 0.209614
*CONN
*P io_out[17] O
*I *664:io_out[17] O *D signal_generator
*CAP
1 io_out[17] 0.000989038
2 *664:io_out[17] 0.00440267
3 *143:17 0.0243642
4 *143:15 0.0234828
5 *143:9 0.00906953
6 *143:7 0.0133646
7 *143:9 io_out[21] 0.00100558
8 *143:9 *144:9 0.00184272
9 *143:9 *145:9 0.00446399
10 *143:9 *147:9 0.00705477
11 *143:17 *147:9 0.000734432
12 io_oeb[17] io_out[17] 0
13 *62:11 io_out[17] 0
14 *140:9 *143:9 0.0407968
15 *140:9 *143:17 0.00689743
16 *140:17 *143:17 0.0174549
17 *141:9 *143:17 0
18 *142:9 *143:9 0.0473342
19 *142:9 *143:17 0.000222486
20 *142:15 *143:15 0
21 *142:17 *143:17 0.00613401
*RES
1 *664:io_out[17] *143:7 16.0812 
2 *143:7 *143:9 620.018 
3 *143:9 *143:15 7.04717 
4 *143:15 *143:17 103.065 
5 *143:17 io_out[17] 6.12503 
*END

*D_NET *144 0.192434
*CONN
*P io_out[18] O
*I *664:io_out[18] O *D signal_generator
*CAP
1 io_out[18] 0.000829164
2 *664:io_out[18] 0.00464778
3 *144:17 0.022492
4 *144:15 0.0218594
5 *144:9 0.00352727
6 *144:7 0.00797851
7 *144:9 io_out[21] 0.00342589
8 *144:9 *145:9 0.00132116
9 *144:15 io_out[21] 0.000385373
10 *144:17 *145:17 0.0641262
11 *144:17 *147:9 7.36201e-05
12 io_oeb[18] io_out[18] 0
13 *63:11 io_out[18] 0
14 *67:13 *144:15 0
15 *120:9 *144:17 0.0256406
16 *142:9 *144:9 0.00163651
17 *142:17 *144:17 0.0326476
18 *143:9 *144:9 0.00184272
*RES
1 *664:io_out[18] *144:7 16.2253 
2 *144:7 *144:9 100.304 
3 *144:9 *144:15 7.47957 
4 *144:15 *144:17 167.304 
5 *144:17 io_out[18] 5.71613 
*END

*D_NET *145 0.155242
*CONN
*P io_out[19] O
*I *664:io_out[19] O *D signal_generator
*CAP
1 io_out[19] 0.000760463
2 *664:io_out[19] 0.00426874
3 *145:17 0.0313505
4 *145:15 0.0310233
5 *145:9 0.00545487
6 *145:7 0.00929037
7 *145:9 io_out[21] 0.00298866
8 *145:15 io_out[21] 0
9 io_oeb[19] io_out[19] 0
10 io_oeb[21] *145:15 1.40863e-05
11 *64:11 io_out[19] 0
12 *120:9 *145:17 0.000179824
13 *143:9 *145:9 0.00446399
14 *144:9 *145:9 0.00132116
15 *144:17 *145:17 0.0641262
*RES
1 *664:io_out[19] *145:7 16.0091 
2 *145:7 *145:9 134.911 
3 *145:9 *145:15 7.8399 
4 *145:15 *145:17 134.492 
5 *145:17 io_out[19] 5.43883 
*END

*D_NET *146 0.25231
*CONN
*P io_out[1] O
*I *664:io_out[1] O *D signal_generator
*CAP
1 io_out[1] 0.000162868
2 *664:io_out[1] 0.00344088
3 *146:13 0.113776
4 *146:11 0.117054
5 *146:11 *154:11 0
6 io_oeb[1] io_out[1] 0
7 io_oeb[1] *146:13 0
8 *65:7 io_out[1] 0
9 *65:9 io_out[1] 0
10 *65:9 *146:13 0
11 *108:11 *146:11 0.00776284
12 *119:11 *146:11 0.00937167
13 *119:13 *146:13 0
14 *128:9 *146:11 0.000296154
15 *129:21 *146:11 0.000445911
*RES
1 *664:io_out[1] *146:11 29.7576 
2 *146:11 *146:13 344.814 
3 *146:13 io_out[1] 0.565567 
*END

*D_NET *147 0.168309
*CONN
*P io_out[20] O
*I *664:io_out[20] O *D signal_generator
*CAP
1 io_out[20] 0.000987711
2 *664:io_out[20] 0.00436922
3 *147:9 0.0239807
4 *147:7 0.0273622
5 *147:9 io_out[21] 0.0152747
6 io_oeb[20] io_out[20] 0
7 *66:13 io_out[20] 0
8 *116:9 *147:9 0
9 *120:9 *147:9 0.0627812
10 *140:9 *147:9 0.00624436
11 *141:9 *147:9 0
12 *142:9 *147:9 0.0192842
13 *142:15 io_out[20] 3.47016e-05
14 *142:17 *147:9 0.000126851
15 *143:9 *147:9 0.00705477
16 *143:17 *147:9 0.000734432
17 *144:17 *147:9 7.36201e-05
*RES
1 *664:io_out[20] *147:7 16.4055 
2 *147:7 *147:9 131.403 
3 *147:9 io_out[20] 6.13287 
*END

*D_NET *148 0.053176
*CONN
*P io_out[21] O
*I *664:io_out[21] O *D signal_generator
*CAP
1 io_out[21] 0.00882699
2 *664:io_out[21] 0.00431186
3 *148:7 0.0131388
4 io_out[21] io_out[22] 0.00222406
5 io_oeb[21] io_out[21] 0
6 *66:15 io_out[21] 0
7 *67:13 io_out[21] 0
8 *116:9 io_out[21] 0
9 *120:9 io_out[21] 0.000570526
10 *121:15 io_out[21] 0.000739233
11 *142:9 io_out[21] 0.000284316
12 *143:9 io_out[21] 0.00100558
13 *144:9 io_out[21] 0.00342589
14 *144:15 io_out[21] 0.000385373
15 *145:9 io_out[21] 0.00298866
16 *145:15 io_out[21] 0
17 *147:9 io_out[21] 0.0152747
*RES
1 *664:io_out[21] *148:7 16.2614 
2 *148:7 io_out[21] 44.7747 
*END

*D_NET *149 0.021886
*CONN
*P io_out[22] O
*I *664:io_out[22] O *D signal_generator
*CAP
1 io_out[22] 0.0070339
2 *664:io_out[22] 0.0070339
3 io_oeb[21] io_out[22] 4.07755e-05
4 io_oeb[22] io_out[22] 0.00511489
5 io_out[21] io_out[22] 0.00222406
6 *664:io_in[22] io_out[22] 0
7 *120:7 io_out[22] 0.00011956
8 *121:15 io_out[22] 0.000318924
*RES
1 *664:io_out[22] io_out[22] 34.2633 
*END

*D_NET *150 0.0199439
*CONN
*P io_out[23] O
*I *664:io_out[23] O *D signal_generator
*CAP
1 io_out[23] 0.00997195
2 *664:io_out[23] 0.00997195
3 io_oeb[23] io_out[23] 0
4 *664:io_in[23] io_out[23] 0
5 *664:io_in[24] io_out[23] 0
*RES
1 *664:io_out[23] io_out[23] 37.464 
*END

*D_NET *151 0.0315202
*CONN
*P io_out[24] O
*I *664:io_out[24] O *D signal_generator
*CAP
1 io_out[24] 0.00434926
2 *664:io_out[24] 0.000752531
3 *151:9 0.00897388
4 *151:7 0.00537715
5 io_out[24] *561:11 0.000909536
6 *151:9 *152:9 0.0081211
7 *151:9 *583:5 0.0018913
8 io_oeb[24] io_out[24] 0
9 *664:io_in[24] io_out[24] 0
10 *124:9 *151:9 0.00114548
*RES
1 *664:io_out[24] *151:7 5.7036 
2 *151:7 *151:9 141.589 
3 *151:9 io_out[24] 16.7345 
*END

*D_NET *152 0.0345674
*CONN
*P io_out[25] O
*I *664:io_out[25] O *D signal_generator
*CAP
1 io_out[25] 0.00478869
2 *664:io_out[25] 0.000702608
3 *152:9 0.00670538
4 *152:7 0.0026193
5 *152:9 *583:5 0.00089914
6 io_oeb[23] *152:9 0.000121492
7 io_oeb[25] io_out[25] 0
8 *664:io_in[23] *152:7 0.000136649
9 *664:io_in[25] io_out[25] 0
10 *664:io_in[26] *152:9 0.00105953
11 *124:9 *152:9 0.00870274
12 *125:9 *152:9 0.000710786
13 *151:9 *152:9 0.0081211
*RES
1 *664:io_out[25] *152:7 5.63153 
2 *152:7 *152:9 122.768 
3 *152:9 io_out[25] 16.7815 
*END

*D_NET *153 0.0237298
*CONN
*P io_out[26] O
*I *664:io_out[26] O *D signal_generator
*CAP
1 io_out[26] 0.0115374
2 *664:io_out[26] 0.0115374
3 io_out[26] *559:11 0.000111202
4 io_out[26] *559:17 0.00054387
5 io_oeb[26] io_out[26] 0
6 *664:io_in[24] io_out[26] 0
7 *664:io_in[26] io_out[26] 0
*RES
1 *664:io_out[26] io_out[26] 40.6992 
*END

*D_NET *154 0.244067
*CONN
*P io_out[2] O
*I *664:io_out[2] O *D signal_generator
*CAP
1 io_out[2] 0.000170333
2 *664:io_out[2] 0.00857576
3 *154:13 0.113458
4 *154:11 0.121863
5 io_oeb[2] io_out[2] 0
6 io_oeb[2] *154:13 0
7 *73:7 io_out[2] 0
8 *73:9 io_out[2] 0
9 *73:9 *154:13 0
10 *108:11 *154:11 0
11 *119:11 *154:11 0
12 *127:15 *154:11 0
13 *127:21 *154:13 0
14 *135:11 *154:11 0
15 *146:11 *154:11 0
*RES
1 *664:io_out[2] *154:11 33.4298 
2 *154:11 *154:13 343.805 
3 *154:13 io_out[2] 0.590633 
*END

*D_NET *155 0.257644
*CONN
*P io_out[3] O
*I *664:io_out[3] O *D signal_generator
*CAP
1 io_out[3] 0.000151412
2 *664:io_out[3] 0.00503045
3 *155:25 0.117486
4 *155:23 0.117335
5 *155:21 0.00171298
6 *155:19 0.00674343
7 *155:19 *157:11 0
8 *664:io_in[5] *155:19 0
9 *74:7 io_out[3] 0
10 *74:9 io_out[3] 0
11 *74:9 *155:25 0
12 *108:11 *155:19 6.51282e-05
13 *108:11 *155:21 0.00189682
14 *127:15 *155:19 0.00324043
15 *127:17 *155:21 0.00341819
16 *128:13 *155:25 0
17 *129:21 *155:21 0.0005457
18 *130:11 *155:19 1.88638e-05
*RES
1 *664:io_out[3] *155:19 29.5125 
2 *155:19 *155:21 54.1607 
3 *155:21 *155:23 3.41 
4 *155:23 *155:25 344.562 
5 *155:25 io_out[3] 0.509167 
*END

*D_NET *156 0.253053
*CONN
*P io_out[4] O
*I *664:io_out[4] O *D signal_generator
*CAP
1 io_out[4] 0.000158095
2 *664:io_out[4] 0.0111784
3 *156:13 0.115156
4 *156:11 0.126176
5 io_oeb[4] io_out[4] 0
6 io_oeb[4] *156:13 0
7 *664:io_in[0] *156:11 0.000383352
8 *664:io_in[3] *156:11 0
9 *75:9 *156:13 0
10 *129:25 *156:13 0
*RES
1 *664:io_out[4] *156:11 41.025 
2 *156:11 *156:13 341.643 
3 *156:13 io_out[4] 0.534233 
*END

*D_NET *157 0.244985
*CONN
*P io_out[5] O
*I *664:io_out[5] O *D signal_generator
*CAP
1 io_out[5] 0.000168001
2 *664:io_out[5] 0.00261117
3 *157:13 0.113782
4 *157:11 0.116225
5 io_oeb[5] io_out[5] 0
6 io_oeb[5] *157:13 0
7 *664:io_in[3] *157:13 0
8 *664:io_in[5] *157:11 0.00578592
9 *76:7 io_out[5] 0
10 *76:9 io_out[5] 0
11 *76:9 *157:13 0
12 *130:11 *157:11 0.00641268
13 *130:13 *157:13 0
14 *155:19 *157:11 0
*RES
1 *664:io_out[5] *157:11 23.4721 
2 *157:11 *157:13 344.814 
3 *157:13 io_out[5] 0.5828 
*END

*D_NET *158 0.253364
*CONN
*P io_out[6] O
*I *664:io_out[6] O *D signal_generator
*CAP
1 io_out[6] 0.000162583
2 *664:io_out[6] 0.0052202
3 *158:13 0.121276
4 *158:11 0.126333
5 *158:11 *160:9 0.000371933
6 io_oeb[6] *158:13 0
7 *77:15 io_out[6] 0
8 *77:15 *158:13 0
9 *133:7 *158:13 0
*RES
1 *664:io_out[6] *158:11 23.328 
2 *158:11 *158:13 344.958 
3 *158:13 io_out[6] 0.543633 
*END

*D_NET *159 0.337659
*CONN
*P io_out[7] O
*I *664:io_out[7] O *D signal_generator
*CAP
1 io_out[7] 0.000174212
2 *664:io_out[7] 0.00282771
3 *159:13 0.119087
4 *159:11 0.118913
5 *159:9 0.0469146
6 *159:7 0.0497423
7 *159:9 *161:9 0
8 io_oeb[7] *159:13 0
9 *78:11 io_out[7] 0
10 *78:11 *159:13 0
*RES
1 *664:io_out[7] *159:7 12.0815 
2 *159:7 *159:9 148.981 
3 *159:9 *159:11 3.41 
4 *159:11 *159:13 338.472 
5 *159:13 io_out[7] 0.576533 
*END

*D_NET *160 0.382713
*CONN
*P io_out[8] O
*I *664:io_out[8] O *D signal_generator
*CAP
1 io_out[8] 0.00015063
2 *664:io_out[8] 0.000778916
3 *160:13 0.11395
4 *160:11 0.1138
5 *160:9 0.0386032
6 *160:7 0.0393821
7 io_oeb[8] io_out[8] 0
8 io_oeb[8] *160:13 0
9 *79:11 *160:13 0
10 *110:9 *160:9 0
11 *112:9 *160:9 0
12 *133:9 *160:9 0
13 *133:13 *160:13 0
14 *137:9 *160:9 0.075676
15 *158:11 *160:9 0.000371933
*RES
1 *664:io_out[8] *160:7 5.88377 
2 *160:7 *160:9 177.318 
3 *160:9 *160:11 3.41 
4 *160:11 *160:13 344.67 
5 *160:13 io_out[8] 0.509167 
*END

*D_NET *161 0.373073
*CONN
*P io_out[9] O
*I *664:io_out[9] O *D signal_generator
*CAP
1 io_out[9] 0.000175125
2 *664:io_out[9] 0.00322183
3 *161:13 0.118654
4 *161:11 0.118478
5 *161:9 0.0646611
6 *161:7 0.067883
7 io_oeb[9] *161:13 0
8 *80:11 *161:13 0
9 *159:9 *161:9 0
*RES
1 *664:io_out[9] *161:7 13.2346 
2 *161:7 *161:9 206.402 
3 *161:9 *161:11 3.41 
4 *161:11 *161:13 337.319 
5 *161:13 io_out[9] 0.560867 
*END

*D_NET *558 0.021497
*CONN
*P wb_clk_i I
*I *664:wb_clk_i I *D signal_generator
*CAP
1 wb_clk_i 0.00696056
2 *664:wb_clk_i 7.61682e-05
3 *558:13 0.00260196
4 *558:11 0.00948635
5 *664:wb_clk_i *664:wb_rst_i 0
6 *558:13 *664:wb_rst_i 0
7 *558:13 *586:5 0.00237195
8 *664:io_in[26] *558:11 0
*RES
1 wb_clk_i *558:11 43.7567 
2 *558:11 *558:13 66.9107 
3 *558:13 *664:wb_clk_i 1.60714 
*END

*D_NET *559 0.0254006
*CONN
*P wb_rst_i I
*I *664:wb_rst_i I *D signal_generator
*CAP
1 wb_rst_i 0.00114648
2 *664:wb_rst_i 0.00222129
3 *559:17 0.00776834
4 *559:11 0.00669352
5 *664:wb_rst_i *619:7 2.97356e-05
6 *559:11 wbs_ack_o 0.000296809
7 *559:17 *626:13 0.00548875
8 io_oeb[24] *559:17 0.000982972
9 io_out[26] *559:11 0.000111202
10 io_out[26] *559:17 0.00054387
11 *664:io_in[26] *559:11 0.000117626
12 *664:wb_clk_i *664:wb_rst_i 0
13 *558:13 *664:wb_rst_i 0
*RES
1 wb_rst_i *559:11 22.2631 
2 *559:11 *559:17 49.6803 
3 *559:17 *664:wb_rst_i 47.7314 
*END

*D_NET *560 0.025596
*CONN
*P wbs_ack_o O
*I *664:wbs_ack_o O *D signal_generator
*CAP
1 wbs_ack_o 0.00102107
2 *664:wbs_ack_o 0.00536242
3 *560:17 0.00299271
4 *560:15 0.00733406
5 wbs_ack_o *593:11 0.000393292
6 *560:15 *593:17 0
7 *560:15 *605:11 0.00538575
8 *560:15 *663:9 0
9 *560:17 *593:13 0.00220677
10 *664:io_in[24] *560:17 0.000298114
11 *664:io_in[26] wbs_ack_o 0.000305038
12 *559:11 wbs_ack_o 0.000296809
*RES
1 *664:wbs_ack_o *560:15 41.4124 
2 *560:15 *560:17 54.7679 
3 *560:17 wbs_ack_o 22.9423 
*END

*D_NET *561 0.0241489
*CONN
*P wbs_adr_i[0] I
*I *664:wbs_adr_i[0] I *D signal_generator
*CAP
1 wbs_adr_i[0] 0.00282231
2 *664:wbs_adr_i[0] 0.00124375
3 *561:11 0.00410608
4 *561:5 0.00568464
5 *664:wbs_adr_i[0] *661:5 0.00162367
6 *561:11 *594:19 0.00749112
7 *561:11 *616:11 0
8 io_out[24] *561:11 0.000909536
9 *664:io_in[25] *561:5 0.00026784
*RES
1 wbs_adr_i[0] *561:5 56.5268 
2 *561:5 *561:11 20.6317 
3 *561:11 *664:wbs_adr_i[0] 31.9643 
*END

*D_NET *562 0.0191306
*CONN
*P wbs_adr_i[10] I
*I *664:wbs_adr_i[10] I *D signal_generator
*CAP
1 wbs_adr_i[10] 0.00260978
2 *664:wbs_adr_i[10] 0.00193237
3 *562:11 0.00407608
4 *562:5 0.00475349
5 *562:5 *573:13 0
6 *562:11 *568:11 0
7 *562:11 *616:11 0.00575884
8 *562:11 *619:11 0
*RES
1 wbs_adr_i[10] *562:5 50.4554 
2 *562:5 *562:11 15.8753 
3 *562:11 *664:wbs_adr_i[10] 38.1607 
*END

*D_NET *563 0.0214045
*CONN
*P wbs_adr_i[11] I
*I *664:wbs_adr_i[11] I *D signal_generator
*CAP
1 wbs_adr_i[11] 0.00363219
2 *664:wbs_adr_i[11] 0.00360054
3 *563:5 0.00723273
4 *664:wbs_adr_i[11] *570:11 0
5 *664:wbs_adr_i[11] *605:11 0.00693907
6 *664:wbs_adr_i[11] *621:11 0
7 *563:5 *576:13 0
8 *563:5 *577:13 0
*RES
1 wbs_adr_i[11] *563:5 69.2768 
2 *563:5 *664:wbs_adr_i[11] 37.0884 
*END

*D_NET *564 0.0209063
*CONN
*P wbs_adr_i[12] I
*I *664:wbs_adr_i[12] I *D signal_generator
*CAP
1 wbs_adr_i[12] 0.00488186
2 *664:wbs_adr_i[12] 7.61682e-05
3 *564:13 0.00307636
4 *564:11 0.00788205
5 *564:11 *573:11 0.0004322
6 *564:11 *578:11 0
7 *564:11 *580:13 0.000255092
8 *564:11 *595:9 0.002897
9 *564:11 *620:11 0
10 *564:11 *623:11 0.00140558
*RES
1 wbs_adr_i[12] *564:11 47.6859 
2 *564:11 *564:13 59.0179 
3 *564:13 *664:wbs_adr_i[12] 1.60714 
*END

*D_NET *565 0.0251579
*CONN
*P wbs_adr_i[13] I
*I *664:wbs_adr_i[13] I *D signal_generator
*CAP
1 wbs_adr_i[13] 0.00187745
2 *664:wbs_adr_i[13] 6.00042e-05
3 *565:17 0.00184727
4 *565:13 0.00526907
5 *565:9 0.00535925
6 *565:9 wbs_dat_o[12] 0
7 *565:9 *582:13 0
8 *565:9 *584:13 0.000511171
9 *565:13 *566:11 0
10 *565:13 *575:11 0.00429038
11 *565:13 *597:11 0
12 *565:13 *620:11 0
13 *565:13 *622:11 0.00276265
14 *565:17 wbs_dat_o[7] 0.00318069
*RES
1 wbs_adr_i[13] *565:9 43.0796 
2 *565:9 *565:13 17.9424 
3 *565:13 *565:17 49.0268 
4 *565:17 *664:wbs_adr_i[13] 1.27679 
*END

*D_NET *566 0.0291872
*CONN
*P wbs_adr_i[14] I
*I *664:wbs_adr_i[14] I *D signal_generator
*CAP
1 wbs_adr_i[14] 0.00183008
2 *664:wbs_adr_i[14] 7.61682e-05
3 *566:13 0.00278534
4 *566:11 0.0058806
5 *566:7 0.0050015
6 *566:11 *597:11 0.00297646
7 *566:11 *620:11 0.0106371
8 *565:13 *566:11 0
*RES
1 wbs_adr_i[14] *566:7 37.4725 
2 *566:7 *566:11 20.1044 
3 *566:11 *566:13 52.9464 
4 *566:13 *664:wbs_adr_i[14] 1.60714 
*END

*D_NET *567 0.028709
*CONN
*P wbs_adr_i[15] I
*I *664:wbs_adr_i[15] I *D signal_generator
*CAP
1 wbs_adr_i[15] 0.00279115
2 *664:wbs_adr_i[15] 0.0018224
3 *567:11 0.00588455
4 *567:5 0.0068533
5 *664:wbs_adr_i[15] *624:5 0.000444851
6 *567:5 *664:wbs_dat_i[3] 0
7 *567:5 *620:13 0
8 *567:11 *574:11 0.00855877
9 *567:11 *585:9 0
10 *567:11 *592:15 0.0011901
11 *567:11 *594:19 0
12 *567:11 *616:11 0.00116384
*RES
1 wbs_adr_i[15] *567:5 52.2768 
2 *567:5 *567:11 25.3161 
3 *567:11 *664:wbs_adr_i[15] 36.625 
*END

*D_NET *568 0.0310137
*CONN
*P wbs_adr_i[16] I
*I *664:wbs_adr_i[16] I *D signal_generator
*CAP
1 wbs_adr_i[16] 0.00246645
2 *664:wbs_adr_i[16] 0.0021767
3 *568:11 0.00708358
4 *568:7 0.00737333
5 *568:7 *664:wbs_dat_i[6] 0
6 *568:7 *623:13 0
7 *568:11 *579:11 0.00105662
8 *568:11 *616:11 0
9 *568:11 *619:11 0.010857
10 *568:11 *628:17 0
11 *562:11 *568:11 0
*RES
1 wbs_adr_i[16] *568:7 49.6154 
2 *568:7 *568:11 23.9239 
3 *568:11 *664:wbs_adr_i[16] 42.4107 
*END

*D_NET *569 0.0331009
*CONN
*P wbs_adr_i[17] I
*I *664:wbs_adr_i[17] I *D signal_generator
*CAP
1 wbs_adr_i[17] 0.00261792
2 *664:wbs_adr_i[17] 0.00153891
3 *569:11 0.00630008
4 *569:5 0.00737909
5 *569:5 *595:13 0.00134825
6 *569:11 *593:17 0
7 *569:11 *624:11 0.0133216
8 *569:11 *627:15 0
9 *569:11 *631:15 0.000594985
*RES
1 wbs_adr_i[17] *569:5 58.3482 
2 *569:5 *569:11 29.2077 
3 *569:11 *664:wbs_adr_i[17] 30.2679 
*END

*D_NET *570 0.0393291
*CONN
*P wbs_adr_i[18] I
*I *664:wbs_adr_i[18] I *D signal_generator
*CAP
1 wbs_adr_i[18] 0.00340537
2 *664:wbs_adr_i[18] 0.00116267
3 *570:11 0.00553964
4 *570:5 0.00778234
5 *664:wbs_adr_i[18] *625:5 0.00016452
6 *570:11 *664:wbs_dat_i[13] 0.00810406
7 *570:11 *664:wbs_dat_i[15] 0.00231416
8 *570:11 *605:11 0
9 *570:11 *621:11 0.0108564
10 *664:wbs_adr_i[11] *570:11 0
*RES
1 wbs_adr_i[18] *570:5 65.0268 
2 *570:5 *570:11 31.1535 
3 *570:11 *664:wbs_adr_i[18] 23.5893 
*END

*D_NET *571 0.0464344
*CONN
*P wbs_adr_i[19] I
*I *664:wbs_adr_i[19] I *D signal_generator
*CAP
1 wbs_adr_i[19] 0.00368582
2 *664:wbs_adr_i[19] 6.00042e-05
3 *571:15 0.00355788
4 *571:5 0.00718369
5 *571:15 wbs_dat_o[9] 0
6 *571:15 *664:wbs_dat_i[14] 0.00708341
7 *571:15 *664:wbs_dat_i[16] 0
8 *571:15 *664:wbs_dat_i[17] 0.00295251
9 *571:15 *664:wbs_dat_i[9] 0.0128053
10 *571:15 *605:11 0.00833411
11 *571:15 *625:5 0
12 *571:15 *629:15 0.000771702
*RES
1 wbs_adr_i[19] *571:5 70.4911 
2 *571:5 *571:15 49.8754 
3 *571:15 *664:wbs_adr_i[19] 1.27679 
*END

*D_NET *572 0.0238119
*CONN
*P wbs_adr_i[1] I
*I *664:wbs_adr_i[1] I *D signal_generator
*CAP
1 wbs_adr_i[1] 0.00278081
2 *664:wbs_adr_i[1] 7.61682e-05
3 *572:13 0.00302503
4 *572:11 0.00572968
5 *664:wbs_adr_i[1] *664:wbs_adr_i[2] 0
6 *572:11 *648:21 0.000463612
7 *572:11 *658:15 0.000551068
8 *572:11 *660:11 0.00287077
9 *572:11 *662:15 0.00444807
10 *572:13 *664:wbs_adr_i[2] 0
11 *572:13 *587:5 0.0033058
12 *664:io_in[26] *572:11 0.000560929
*RES
1 wbs_adr_i[1] *572:11 31.3128 
2 *572:11 *572:13 73.5893 
3 *572:13 *664:wbs_adr_i[1] 1.60714 
*END

*D_NET *573 0.0469437
*CONN
*P wbs_adr_i[20] I
*I *664:wbs_adr_i[20] I *D signal_generator
*CAP
1 wbs_adr_i[20] 0.00145162
2 *664:wbs_adr_i[20] 7.61682e-05
3 *573:13 0.00321704
4 *573:11 0.0075463
5 *573:7 0.00585705
6 *573:7 *606:9 0
7 *573:11 *576:11 0
8 *573:11 *595:9 0.0116924
9 *573:11 *623:11 0.0108717
10 *573:11 *630:15 0
11 *573:11 *633:15 0.00579926
12 *573:13 wbs_dat_o[9] 0
13 *562:5 *573:13 0
14 *564:11 *573:11 0.0004322
*RES
1 wbs_adr_i[20] *573:7 30.1868 
2 *573:7 *573:11 31.563 
3 *573:11 *573:13 60.2321 
4 *573:13 *664:wbs_adr_i[20] 1.60714 
*END

*D_NET *574 0.042905
*CONN
*P wbs_adr_i[21] I
*I *664:wbs_adr_i[21] I *D signal_generator
*CAP
1 wbs_adr_i[21] 0.00238667
2 *664:wbs_adr_i[21] 0.00193253
3 *574:11 0.00705418
4 *574:5 0.00750832
5 *574:5 *608:13 0
6 *574:5 *609:13 0.000642534
7 *574:5 *648:19 0.000321187
8 *574:11 *664:wbs_dat_i[19] 0.000238295
9 *574:11 *585:9 0
10 *574:11 *616:11 0.0077719
11 *574:11 *628:17 0.00649065
12 *567:11 *574:11 0.00855877
*RES
1 wbs_adr_i[21] *574:5 51.6696 
2 *574:5 *574:11 36.9188 
3 *574:11 *664:wbs_adr_i[21] 36.9464 
*END

*D_NET *575 0.0473097
*CONN
*P wbs_adr_i[22] I
*I *664:wbs_adr_i[22] I *D signal_generator
*CAP
1 wbs_adr_i[22] 0.00210941
2 *664:wbs_adr_i[22] 0.0026619
3 *575:11 0.00824323
4 *575:7 0.00769074
5 *664:wbs_adr_i[22] wbs_dat_o[10] 0
6 *575:11 *596:11 0.00159534
7 *575:11 *597:11 0
8 *575:11 *622:11 0.00947487
9 *575:11 *626:13 0
10 *575:11 *632:15 0.0112438
11 *565:13 *575:11 0.00429038
*RES
1 wbs_adr_i[22] *575:7 42.3296 
2 *575:7 *575:11 35.3825 
3 *575:11 *664:wbs_adr_i[22] 49.6964 
*END

*D_NET *576 0.0473664
*CONN
*P wbs_adr_i[23] I
*I *664:wbs_adr_i[23] I *D signal_generator
*CAP
1 wbs_adr_i[23] 0.00128592
2 *664:wbs_adr_i[23] 7.61682e-05
3 *576:13 0.00343799
4 *576:11 0.00863128
5 *576:7 0.00655538
6 *576:11 *577:11 0.0211399
7 *576:11 *608:11 0.00279196
8 *576:11 *623:11 0.00185919
9 *576:11 *633:15 0.00158856
10 *576:13 wbs_dat_o[10] 0
11 *563:5 *576:13 0
12 *573:11 *576:11 0
*RES
1 wbs_adr_i[23] *576:7 26.5439 
2 *576:7 *576:11 37.3283 
3 *576:11 *576:13 63.875 
4 *576:13 *664:wbs_adr_i[23] 1.60714 
*END

*D_NET *577 0.0600068
*CONN
*P wbs_adr_i[24] I
*I *664:wbs_adr_i[24] I *D signal_generator
*CAP
1 wbs_adr_i[24] 0.0012545
2 *664:wbs_adr_i[24] 7.61682e-05
3 *577:13 0.00347015
4 *577:11 0.00748243
5 *577:7 0.00534295
6 *577:7 *637:9 0
7 *577:11 *580:11 0.0212407
8 *577:11 *633:15 0
9 *577:13 *596:7 0
10 *563:5 *577:13 0
11 *576:11 *577:11 0.0211399
*RES
1 wbs_adr_i[24] *577:7 25.9368 
2 *577:7 *577:11 39.2021 
3 *577:11 *577:13 64.4821 
4 *577:13 *664:wbs_adr_i[24] 1.60714 
*END

*D_NET *578 0.0538331
*CONN
*P wbs_adr_i[25] I
*I *664:wbs_adr_i[25] I *D signal_generator
*CAP
1 wbs_adr_i[25] 0.00176567
2 *664:wbs_adr_i[25] 7.78712e-05
3 *578:13 0.00299871
4 *578:11 0.00932017
5 *578:7 0.008165
6 *578:7 *651:9 0
7 *578:7 *652:9 0
8 *578:11 *595:9 0
9 *578:11 *597:11 0.00164631
10 *578:11 *607:11 0.000399613
11 *578:11 *618:11 0.00256768
12 *578:11 *620:11 0.00668989
13 *578:11 *630:15 0.0202021
14 *578:11 *632:15 0
15 *578:13 wbs_dat_o[11] 0
16 *578:13 *596:7 0
17 *564:11 *578:11 0
*RES
1 wbs_adr_i[25] *578:7 36.2582 
2 *578:7 *578:11 41.1479 
3 *578:11 *578:13 54.1607 
4 *578:13 *664:wbs_adr_i[25] 1.60714 
*END

*D_NET *579 0.0629689
*CONN
*P wbs_adr_i[26] I
*I *664:wbs_adr_i[26] I *D signal_generator
*CAP
1 wbs_adr_i[26] 0.00236966
2 *664:wbs_adr_i[26] 0.00222691
3 *579:11 0.00793156
4 *579:7 0.00807431
5 *664:wbs_adr_i[26] wbs_dat_o[11] 0.000153623
6 *579:7 *654:9 0
7 *579:11 *617:11 0
8 *579:11 *619:11 0.00547501
9 *579:11 *626:13 0.0211627
10 *579:11 *628:17 0
11 *579:11 *634:15 0.0145185
12 *568:11 *579:11 0.00105662
*RES
1 wbs_adr_i[26] *579:7 48.4011 
2 *579:7 *579:11 43.0216 
3 *579:11 *664:wbs_adr_i[26] 43.625 
*END

*D_NET *580 0.0666431
*CONN
*P wbs_adr_i[27] I
*I *664:wbs_adr_i[27] I *D signal_generator
*CAP
1 wbs_adr_i[27] 0.00119143
2 *664:wbs_adr_i[27] 7.61682e-05
3 *580:13 0.00344155
4 *580:11 0.00826397
5 *580:7 0.00609002
6 *580:7 wbs_dat_o[19] 0
7 *580:11 *581:11 0.0260842
8 *580:11 *633:15 0
9 *564:11 *580:13 0.000255092
10 *577:11 *580:11 0.0212407
*RES
1 wbs_adr_i[27] *580:7 25.3296 
2 *580:7 *580:11 44.9674 
3 *580:11 *580:13 65.0893 
4 *580:13 *664:wbs_adr_i[27] 1.60714 
*END

*D_NET *581 0.0723786
*CONN
*P wbs_adr_i[28] I
*I *664:wbs_adr_i[28] I *D signal_generator
*CAP
1 wbs_adr_i[28] 0.0011557
2 *664:wbs_adr_i[28] 7.61682e-05
3 *581:13 0.00333179
4 *581:11 0.00773356
5 *581:7 0.00563364
6 *581:11 *582:11 0.0272963
7 *581:11 *633:15 0
8 *581:11 *652:21 0
9 *581:13 *597:7 0.00106733
10 *580:11 *581:11 0.0260842
*RES
1 wbs_adr_i[28] *581:7 24.7225 
2 *581:7 *581:11 46.8411 
3 *581:11 *581:13 65.6964 
4 *581:13 *664:wbs_adr_i[28] 1.60714 
*END

*D_NET *582 0.0766813
*CONN
*P wbs_adr_i[29] I
*I *664:wbs_adr_i[29] I *D signal_generator
*CAP
1 wbs_adr_i[29] 0.00112585
2 *664:wbs_adr_i[29] 7.61682e-05
3 *582:13 0.00273547
4 *582:11 0.00729038
5 *582:7 0.00575693
6 *582:7 *639:19 0
7 *582:11 *584:9 0.0285262
8 *582:11 *633:15 0
9 *582:13 wbs_dat_o[12] 0.00387397
10 *565:9 *582:13 0
11 *581:11 *582:11 0.0272963
*RES
1 wbs_adr_i[29] *582:7 24.1154 
2 *582:7 *582:11 48.7869 
3 *582:11 *582:13 66.3036 
4 *582:13 *664:wbs_adr_i[29] 1.60714 
*END

*D_NET *583 0.0175268
*CONN
*P wbs_adr_i[2] I
*I *664:wbs_adr_i[2] I *D signal_generator
*CAP
1 wbs_adr_i[2] 0.00330177
2 *664:wbs_adr_i[2] 0.0024328
3 *583:5 0.00573457
4 *664:wbs_adr_i[2] *659:9 0.00230493
5 *664:wbs_adr_i[2] *661:9 0.000962247
6 *664:wbs_adr_i[1] *664:wbs_adr_i[2] 0
7 *125:9 *583:5 0
8 *151:9 *583:5 0.0018913
9 *152:9 *583:5 0.00089914
10 *572:13 *664:wbs_adr_i[2] 0
*RES
1 wbs_adr_i[2] *583:5 77.1696 
2 *583:5 *664:wbs_adr_i[2] 27.2758 
*END

*D_NET *584 0.0637907
*CONN
*P wbs_adr_i[30] I
*I *664:wbs_adr_i[30] I *D signal_generator
*CAP
1 wbs_adr_i[30] 0.00107227
2 *664:wbs_adr_i[30] 7.61682e-05
3 *584:13 0.00342876
4 *584:11 0.00335259
5 *584:9 0.00962849
6 *584:7 0.0107008
7 *584:7 *636:9 0
8 *584:7 *638:9 0
9 *584:9 wbs_dat_o[24] 0
10 *584:9 wbs_dat_o[27] 0
11 *584:9 wbs_dat_o[28] 0
12 *584:9 *611:11 0.00649427
13 *584:9 *652:21 0
14 *565:9 *584:13 0.000511171
15 *582:11 *584:9 0.0285262
*RES
1 wbs_adr_i[30] *584:7 23.5082 
2 *584:7 *584:9 47.2507 
3 *584:9 *584:11 3.41 
4 *584:11 *584:13 66.9107 
5 *584:13 *664:wbs_adr_i[30] 1.60714 
*END

*D_NET *585 0.0592408
*CONN
*P wbs_adr_i[31] I
*I *664:wbs_adr_i[31] I *D signal_generator
*CAP
1 wbs_adr_i[31] 0.00222965
2 *664:wbs_adr_i[31] 0.0015294
3 *585:9 0.0129275
4 *585:7 0.0113981
5 *585:5 0.00222965
6 *664:wbs_adr_i[31] *598:5 0.000726425
7 *585:5 *640:9 0
8 *585:5 *641:9 0.00184526
9 *585:9 *664:wbs_dat_i[19] 0.000235125
10 *585:9 *594:19 0.00115272
11 *585:9 *612:11 0
12 *585:9 *624:11 0.000734197
13 *585:9 *628:17 0
14 *585:9 *631:15 0.0242326
15 *567:11 *585:9 0
16 *574:11 *585:9 0
*RES
1 wbs_adr_i[31] *585:5 56.5268 
2 *585:5 *585:7 3.41 
3 *585:7 *585:9 49.1965 
4 *585:9 *664:wbs_adr_i[31] 35.4993 
*END

*D_NET *586 0.0134993
*CONN
*P wbs_adr_i[3] I
*I *664:wbs_adr_i[3] I *D signal_generator
*CAP
1 wbs_adr_i[3] 0.00285273
2 *664:wbs_adr_i[3] 0.00197124
3 *586:5 0.00482397
4 *664:wbs_adr_i[3] *605:11 0.000611448
5 *664:wbs_adr_i[3] *663:9 0.000868001
6 *586:5 *662:15 0
7 *558:13 *586:5 0.00237195
*RES
1 wbs_adr_i[3] *586:5 72.9196 
2 *586:5 *664:wbs_adr_i[3] 28.7152 
*END

*D_NET *587 0.0124745
*CONN
*P wbs_adr_i[4] I
*I *664:wbs_adr_i[4] I *D signal_generator
*CAP
1 wbs_adr_i[4] 0.00196351
2 *664:wbs_adr_i[4] 0.00231003
3 *587:5 0.00427354
4 *664:wbs_adr_i[4] *664:wbs_adr_i[5] 0
5 *664:wbs_adr_i[4] *594:19 0.00030951
6 *664:wbs_adr_i[4] *616:11 0.00031209
7 *572:13 *587:5 0.0033058
*RES
1 wbs_adr_i[4] *587:5 54.0982 
2 *587:5 *664:wbs_adr_i[4] 43.9072 
*END

*D_NET *588 0.00914612
*CONN
*P wbs_adr_i[5] I
*I *664:wbs_adr_i[5] I *D signal_generator
*CAP
1 wbs_adr_i[5] 0.00271251
2 *664:wbs_adr_i[5] 0.00186056
3 *588:5 0.00457306
4 *664:wbs_adr_i[5] *621:5 0
5 *664:wbs_adr_i[4] *664:wbs_adr_i[5] 0
*RES
1 wbs_adr_i[5] *588:5 54.0982 
2 *588:5 *664:wbs_adr_i[5] 37.3929 
*END

*D_NET *589 0.00985913
*CONN
*P wbs_adr_i[6] I
*I *664:wbs_adr_i[6] I *D signal_generator
*CAP
1 wbs_adr_i[6] 0.00210081
2 *664:wbs_adr_i[6] 7.61682e-05
3 *589:13 0.00266566
4 *589:11 0.0046903
5 *589:11 *590:13 0
6 *589:11 *591:13 0
7 *589:11 *620:11 0.000326188
8 *589:13 wbs_dat_o[5] 0
9 *589:13 *621:5 0
*RES
1 wbs_adr_i[6] *589:11 43.441 
2 *589:11 *589:13 51.7321 
3 *589:13 *664:wbs_adr_i[6] 1.60714 
*END

*D_NET *590 0.0124462
*CONN
*P wbs_adr_i[7] I
*I *664:wbs_adr_i[7] I *D signal_generator
*CAP
1 wbs_adr_i[7] 0.00157485
2 *664:wbs_adr_i[7] 7.61682e-05
3 *590:13 0.00360837
4 *590:11 0.00510706
5 *590:11 *652:21 0.00207976
6 *590:13 wbs_dat_o[5] 0
7 *589:11 *590:13 0
*RES
1 wbs_adr_i[7] *590:11 26.5654 
2 *590:11 *590:13 70.5536 
3 *590:13 *664:wbs_adr_i[7] 1.60714 
*END

*D_NET *591 0.0132775
*CONN
*P wbs_adr_i[8] I
*I *664:wbs_adr_i[8] I *D signal_generator
*CAP
1 wbs_adr_i[8] 0.00284846
2 *664:wbs_adr_i[8] 7.61682e-05
3 *591:13 0.00283292
4 *591:11 0.00560521
5 *591:11 *620:11 0.00191471
6 *591:11 *623:11 0
7 *591:13 *622:7 0
8 *589:11 *591:13 0
*RES
1 wbs_adr_i[8] *591:11 44.2969 
2 *591:11 *591:13 54.7679 
3 *591:13 *664:wbs_adr_i[8] 1.60714 
*END

*D_NET *592 0.0174613
*CONN
*P wbs_adr_i[9] I
*I *664:wbs_adr_i[9] I *D signal_generator
*CAP
1 wbs_adr_i[9] 0.00267648
2 *664:wbs_adr_i[9] 6.00042e-05
3 *592:15 0.00318824
4 *592:5 0.00580471
5 *592:15 *594:19 0
6 *592:15 *616:11 0.0045418
7 *567:11 *592:15 0.0011901
*RES
1 wbs_adr_i[9] *592:5 51.6696 
2 *592:5 *592:15 49.5992 
3 *592:15 *664:wbs_adr_i[9] 1.27679 
*END

*D_NET *593 0.053898
*CONN
*P wbs_cyc_i I
*I *664:wbs_cyc_i I *D signal_generator
*CAP
1 wbs_cyc_i 0.000867507
2 *664:wbs_cyc_i 0.00131189
3 *593:17 0.0132539
4 *593:13 0.0136758
5 *593:11 0.00260127
6 *593:17 *605:11 0
7 *593:17 *621:11 0.0144009
8 *593:17 *624:11 0
9 *593:17 *627:15 0.00516557
10 wbs_ack_o *593:11 0.000393292
11 *664:io_in[26] *593:11 2.10638e-05
12 *560:15 *593:17 0
13 *560:17 *593:13 0.00220677
14 *569:11 *593:17 0
*RES
1 wbs_cyc_i *593:11 21.6145 
2 *593:11 *593:13 49.9107 
3 *593:13 *593:17 47.0573 
4 *593:17 *664:wbs_cyc_i 28.2136 
*END

*D_NET *594 0.0492033
*CONN
*P wbs_dat_i[0] I
*I *664:wbs_dat_i[0] I *D signal_generator
*CAP
1 wbs_dat_i[0] 0.000989215
2 *664:wbs_dat_i[0] 0.00165703
3 *594:19 0.011616
4 *594:15 0.0121334
5 *594:11 0.00316359
6 *594:11 *626:23 0.000164527
7 *594:11 *662:15 0.000376944
8 *594:15 wbs_dat_o[0] 1.65923e-05
9 *594:19 *616:11 0
10 *594:19 *624:11 0.00995705
11 *664:io_in[26] *594:11 0.000175586
12 *664:wbs_adr_i[4] *594:19 0.00030951
13 *561:11 *594:19 0.00749112
14 *567:11 *594:19 0
15 *585:9 *594:19 0.00115272
16 *592:15 *594:19 0
*RES
1 wbs_dat_i[0] *594:11 22.0469 
2 *594:11 *594:15 46.6421 
3 *594:15 *594:19 43.7423 
4 *594:19 *664:wbs_dat_i[0] 31.4821 
*END

*D_NET *595 0.0317946
*CONN
*P wbs_dat_i[10] I
*I *664:wbs_dat_i[10] I *D signal_generator
*CAP
1 wbs_dat_i[10] 0.0052117
2 *664:wbs_dat_i[10] 7.61682e-05
3 *595:13 0.0027168
4 *595:11 0.00264063
5 *595:9 0.0052117
6 *564:11 *595:9 0.002897
7 *569:5 *595:13 0.00134825
8 *573:11 *595:9 0.0116924
9 *578:11 *595:9 0
*RES
1 wbs_dat_i[10] *595:9 49.4341 
2 *595:9 *595:11 3.41 
3 *595:11 *595:13 59.625 
4 *595:13 *664:wbs_dat_i[10] 1.60714 
*END

*D_NET *596 0.0273591
*CONN
*P wbs_dat_i[11] I
*I *664:wbs_dat_i[11] I *D signal_generator
*CAP
1 wbs_dat_i[11] 0.00211739
2 *664:wbs_dat_i[11] 0.0020159
3 *596:11 0.00553771
4 *596:7 0.0056392
5 *664:wbs_dat_i[11] *602:5 0.00246196
6 *596:11 *622:11 0.00799157
7 *596:11 *626:13 0
8 *575:11 *596:11 0.00159534
9 *577:13 *596:7 0
10 *578:13 *596:7 0
*RES
1 wbs_dat_i[11] *596:7 43.5439 
2 *596:7 *596:11 20.1765 
3 *596:11 *664:wbs_dat_i[11] 48.4821 
*END

*D_NET *597 0.02286
*CONN
*P wbs_dat_i[12] I
*I *664:wbs_dat_i[12] I *D signal_generator
*CAP
1 wbs_dat_i[12] 0.00159119
2 *664:wbs_dat_i[12] 0.000831342
3 *597:15 0.00262926
4 *597:11 0.00511426
5 *597:7 0.00490753
6 *597:11 *620:11 0.0012061
7 *597:11 *632:15 0
8 *597:15 wbs_dat_o[17] 0.000890265
9 *565:13 *597:11 0
10 *566:11 *597:11 0.00297646
11 *575:11 *597:11 0
12 *578:11 *597:11 0.00164631
13 *581:13 *597:7 0.00106733
*RES
1 wbs_dat_i[12] *597:7 38.0796 
2 *597:7 *597:11 18.1586 
3 *597:11 *597:15 38.4643 
4 *597:15 *664:wbs_dat_i[12] 16.1429 
*END

*D_NET *598 0.0234134
*CONN
*P wbs_dat_i[13] I
*I *664:wbs_dat_i[13] I *D signal_generator
*CAP
1 wbs_dat_i[13] 0.00335843
2 *664:wbs_dat_i[13] 0.00393304
3 *598:5 0.00729147
4 *664:wbs_dat_i[13] *629:15 0
5 *664:wbs_adr_i[31] *598:5 0.000726425
6 *570:11 *664:wbs_dat_i[13] 0.00810406
*RES
1 wbs_dat_i[13] *598:5 65.6339 
2 *598:5 *664:wbs_dat_i[13] 42.552 
*END

*D_NET *599 0.0254421
*CONN
*P wbs_dat_i[14] I
*I *664:wbs_dat_i[14] I *D signal_generator
*CAP
1 wbs_dat_i[14] 0.00373428
2 *664:wbs_dat_i[14] 0.00190337
3 *599:5 0.00563765
4 *664:wbs_dat_i[14] *629:15 0.00708341
5 *599:5 *664:wbs_dat_i[2] 0
6 *571:15 *664:wbs_dat_i[14] 0.00708341
*RES
1 wbs_dat_i[14] *599:5 69.8839 
2 *599:5 *664:wbs_dat_i[14] 36.5533 
*END

*D_NET *600 0.0205638
*CONN
*P wbs_dat_i[15] I
*I *664:wbs_dat_i[15] I *D signal_generator
*CAP
1 wbs_dat_i[15] 0.00337996
2 *664:wbs_dat_i[15] 0.00270317
3 *600:5 0.00608313
4 *664:wbs_dat_i[15] *664:wbs_dat_i[16] 0
5 *664:wbs_dat_i[15] *664:wbs_dat_i[18] 6.05769e-05
6 *664:wbs_dat_i[15] *603:5 0
7 *664:wbs_dat_i[15] *621:11 0.000301786
8 *664:wbs_dat_i[15] *627:15 0.00572103
9 *600:5 *620:13 0
10 *570:11 *664:wbs_dat_i[15] 0.00231416
*RES
1 wbs_dat_i[15] *600:5 63.8125 
2 *600:5 *664:wbs_dat_i[15] 40.751 
*END

*D_NET *601 0.0169737
*CONN
*P wbs_dat_i[16] I
*I *664:wbs_dat_i[16] I *D signal_generator
*CAP
1 wbs_dat_i[16] 0.00373941
2 *664:wbs_dat_i[16] 0.00230552
3 *601:5 0.00604493
4 *664:wbs_dat_i[16] *664:wbs_dat_i[17] 0
5 *664:wbs_dat_i[16] *664:wbs_dat_i[9] 0
6 *664:wbs_dat_i[16] *663:9 0.00439763
7 *601:5 *664:wbs_dat_i[8] 0.000486172
8 *601:5 *623:13 0
9 *664:wbs_dat_i[15] *664:wbs_dat_i[16] 0
10 *571:15 *664:wbs_dat_i[16] 0
*RES
1 wbs_dat_i[16] *601:5 74.7411 
2 *601:5 *664:wbs_dat_i[16] 28.6955 
*END

*D_NET *602 0.0163956
*CONN
*P wbs_dat_i[17] I
*I *664:wbs_dat_i[17] I *D signal_generator
*CAP
1 wbs_dat_i[17] 0.0032835
2 *664:wbs_dat_i[17] 0.00212591
3 *602:5 0.00540942
4 *664:wbs_dat_i[17] *629:15 0.000162323
5 *664:wbs_dat_i[17] *663:9 0
6 *664:wbs_dat_i[11] *602:5 0.00246196
7 *664:wbs_dat_i[16] *664:wbs_dat_i[17] 0
8 *571:15 *664:wbs_dat_i[17] 0.00295251
*RES
1 wbs_dat_i[17] *602:5 71.0982 
2 *602:5 *664:wbs_dat_i[17] 29.6457 
*END

*D_NET *603 0.0118301
*CONN
*P wbs_dat_i[18] I
*I *664:wbs_dat_i[18] I *D signal_generator
*CAP
1 wbs_dat_i[18] 0.00349363
2 *664:wbs_dat_i[18] 0.00211443
3 *603:5 0.00560806
4 *664:wbs_dat_i[18] *627:15 0
5 *664:wbs_dat_i[18] *629:15 0.000553389
6 *664:wbs_dat_i[15] *664:wbs_dat_i[18] 6.05769e-05
7 *664:wbs_dat_i[15] *603:5 0
*RES
1 wbs_dat_i[18] *603:5 66.8482 
2 *603:5 *664:wbs_dat_i[18] 31.9499 
*END

*D_NET *604 0.0103882
*CONN
*P wbs_dat_i[19] I
*I *664:wbs_dat_i[19] I *D signal_generator
*CAP
1 wbs_dat_i[19] 0.00285084
2 *664:wbs_dat_i[19] 0.00210654
3 *604:5 0.00495737
4 *604:5 *637:19 0
5 *574:11 *664:wbs_dat_i[19] 0.000238295
6 *585:9 *664:wbs_dat_i[19] 0.000235125
*RES
1 wbs_dat_i[19] *604:5 54.0982 
2 *604:5 *664:wbs_dat_i[19] 42.8262 
*END

*D_NET *605 0.0504171
*CONN
*P wbs_dat_i[1] I
*I *664:wbs_dat_i[1] I *D signal_generator
*CAP
1 wbs_dat_i[1] 0.00362839
2 *664:wbs_dat_i[1] 0.000974128
3 *605:11 0.00940493
4 *605:5 0.0120592
5 *605:11 *664:wbs_dat_i[9] 0.000208855
6 *605:11 *629:15 0.00287125
7 *605:11 *663:9 0
8 *664:wbs_adr_i[11] *605:11 0.00693907
9 *664:wbs_adr_i[3] *605:11 0.000611448
10 *560:15 *605:11 0.00538575
11 *570:11 *605:11 0
12 *571:15 *605:11 0.00833411
13 *593:17 *605:11 0
*RES
1 wbs_dat_i[1] *605:5 69.8839 
2 *605:5 *605:11 45.4947 
3 *605:11 *664:wbs_dat_i[1] 18.7321 
*END

*D_NET *606 0.00948595
*CONN
*P wbs_dat_i[20] I
*I *664:wbs_dat_i[20] I *D signal_generator
*CAP
1 wbs_dat_i[20] 0.00174203
2 *664:wbs_dat_i[20] 7.61682e-05
3 *606:11 0.00300095
4 *606:9 0.00466681
5 *573:7 *606:9 0
*RES
1 wbs_dat_i[20] *606:9 32.9375 
2 *606:9 *606:11 57.1964 
3 *606:11 *664:wbs_dat_i[20] 1.60714 
*END

*D_NET *607 0.01125
*CONN
*P wbs_dat_i[21] I
*I *664:wbs_dat_i[21] I *D signal_generator
*CAP
1 wbs_dat_i[21] 0.00237104
2 *664:wbs_dat_i[21] 7.78712e-05
3 *607:13 0.00280031
4 *607:11 0.00509347
5 *607:11 *609:13 0
6 *607:11 *610:13 0.000227617
7 *607:11 *632:15 0.000280038
8 *578:11 *607:11 0.000399613
*RES
1 wbs_dat_i[21] *607:11 44.522 
2 *607:11 *607:13 51.7321 
3 *607:13 *664:wbs_dat_i[21] 1.60714 
*END

*D_NET *608 0.0140667
*CONN
*P wbs_dat_i[22] I
*I *664:wbs_dat_i[22] I *D signal_generator
*CAP
1 wbs_dat_i[22] 0.00194211
2 *664:wbs_dat_i[22] 7.61682e-05
3 *608:13 0.003316
4 *608:11 0.00518194
5 *608:11 *633:15 0.000758532
6 *608:11 *652:19 0
7 *574:5 *608:13 0
8 *576:11 *608:11 0.00279196
*RES
1 wbs_dat_i[22] *608:11 34.9321 
2 *608:11 *608:13 63.2679 
3 *608:13 *664:wbs_dat_i[22] 1.60714 
*END

*D_NET *609 0.0141886
*CONN
*P wbs_dat_i[23] I
*I *664:wbs_dat_i[23] I *D signal_generator
*CAP
1 wbs_dat_i[23] 0.00323658
2 *664:wbs_dat_i[23] 7.61682e-05
3 *609:13 0.00272607
4 *609:11 0.00588648
5 *609:11 *610:11 0.000751592
6 *609:11 *630:15 0.000869155
7 *574:5 *609:13 0.000642534
8 *607:11 *609:13 0
*RES
1 wbs_dat_i[23] *609:11 42.9493 
2 *609:11 *609:13 57.1964 
3 *609:13 *664:wbs_dat_i[23] 1.60714 
*END

*D_NET *610 0.017876
*CONN
*P wbs_dat_i[24] I
*I *664:wbs_dat_i[24] I *D signal_generator
*CAP
1 wbs_dat_i[24] 0.00324941
2 *664:wbs_dat_i[24] 7.61682e-05
3 *610:13 0.00302498
4 *610:11 0.00619823
5 *610:11 *613:11 0.00350398
6 *610:11 *630:15 0
7 *610:11 *633:15 0.000844006
8 *610:11 *637:9 0
9 *610:11 *648:9 0
10 *610:11 *656:19 0
11 *607:11 *610:13 0.000227617
12 *609:11 *610:11 0.000751592
*RES
1 wbs_dat_i[24] *610:11 42.3945 
2 *610:11 *610:13 59.625 
3 *610:13 *664:wbs_dat_i[24] 1.60714 
*END

*D_NET *611 0.0205528
*CONN
*P wbs_dat_i[25] I
*I *664:wbs_dat_i[25] I *D signal_generator
*CAP
1 wbs_dat_i[25] 0.00327631
2 *664:wbs_dat_i[25] 7.78712e-05
3 *611:13 0.00367347
4 *611:11 0.0068719
5 *611:11 wbs_dat_o[18] 0.000158969
6 *611:11 *652:9 0
7 *611:11 *652:21 0
8 *611:11 *656:23 0
9 *584:9 *611:11 0.00649427
*RES
1 wbs_dat_i[25] *611:11 36.4474 
2 *611:11 *611:13 67.5179 
3 *611:13 *664:wbs_dat_i[25] 1.60714 
*END

*D_NET *612 0.0222825
*CONN
*P wbs_dat_i[26] I
*I *664:wbs_dat_i[26] I *D signal_generator
*CAP
1 wbs_dat_i[26] 0.002141
2 *664:wbs_dat_i[26] 0.00190353
3 *612:11 0.00436844
4 *612:5 0.00460592
5 *612:5 *656:9 0.00153999
6 *612:11 *628:17 0.00772365
7 *585:9 *612:11 0
*RES
1 wbs_dat_i[26] *612:5 51.0625 
2 *612:5 *612:11 18.8301 
3 *612:11 *664:wbs_dat_i[26] 37.5536 
*END

*D_NET *613 0.0264193
*CONN
*P wbs_dat_i[27] I
*I *664:wbs_dat_i[27] I *D signal_generator
*CAP
1 wbs_dat_i[27] 0.00390445
2 *664:wbs_dat_i[27] 7.61682e-05
3 *613:13 0.00316194
4 *613:11 0.00699022
5 *613:11 *633:15 0.00878259
6 *610:11 *613:11 0.00350398
*RES
1 wbs_dat_i[27] *613:11 47.5527 
2 *613:11 *613:13 60.2321 
3 *613:13 *664:wbs_dat_i[27] 1.60714 
*END

*D_NET *614 0.0251556
*CONN
*P wbs_dat_i[28] I
*I *664:wbs_dat_i[28] I *D signal_generator
*CAP
1 wbs_dat_i[28] 0.0033982
2 *664:wbs_dat_i[28] 0.00452448
3 *614:5 0.00792268
4 *664:wbs_dat_i[28] *664:wbs_dat_i[29] 0
5 *664:wbs_dat_i[28] *629:15 0.00891857
6 *664:wbs_dat_i[28] *663:9 0
7 *614:5 *631:11 0.000391681
8 *614:5 *632:9 0
*RES
1 wbs_dat_i[28] *614:5 69.8839 
2 *614:5 *664:wbs_dat_i[28] 41.3817 
*END

*D_NET *615 0.025946
*CONN
*P wbs_dat_i[29] I
*I *664:wbs_dat_i[29] I *D signal_generator
*CAP
1 wbs_dat_i[29] 0.00323612
2 *664:wbs_dat_i[29] 0.00617883
3 *615:5 0.00941494
4 *664:wbs_dat_i[29] *627:15 0.00711616
5 *664:wbs_dat_i[29] *629:15 0
6 *615:5 *634:11 0
7 *615:5 *635:9 0
8 *615:5 *640:19 0
9 *664:wbs_dat_i[28] *664:wbs_dat_i[29] 0
*RES
1 wbs_dat_i[29] *615:5 63.8125 
2 *615:5 *664:wbs_dat_i[29] 49.399 
*END

*D_NET *616 0.0487092
*CONN
*P wbs_dat_i[2] I
*I *664:wbs_dat_i[2] I *D signal_generator
*CAP
1 wbs_dat_i[2] 0.00254433
2 *664:wbs_dat_i[2] 0.00197849
3 *616:11 0.00929959
4 *616:5 0.00986543
5 *664:wbs_dat_i[2] wbs_dat_o[14] 0
6 *616:11 *619:11 0
7 *616:11 *628:17 0.00517672
8 io_oeb[26] *616:5 0.000296154
9 *664:wbs_adr_i[4] *616:11 0.00031209
10 *125:9 *616:5 0
11 *561:11 *616:11 0
12 *562:11 *616:11 0.00575884
13 *567:11 *616:11 0.00116384
14 *568:11 *616:11 0
15 *574:11 *616:11 0.0077719
16 *592:15 *616:11 0.0045418
17 *594:19 *616:11 0
18 *599:5 *664:wbs_dat_i[2] 0
*RES
1 wbs_dat_i[2] *616:5 51.0625 
2 *616:5 *616:11 42.6841 
3 *616:11 *664:wbs_dat_i[2] 37.5536 
*END

*D_NET *617 0.0280872
*CONN
*P wbs_dat_i[30] I
*I *664:wbs_dat_i[30] I *D signal_generator
*CAP
1 wbs_dat_i[30] 0.00195513
2 *664:wbs_dat_i[30] 0.00254945
3 *617:11 0.0073066
4 *617:7 0.00671228
5 *617:7 *638:9 0
6 *617:7 *639:9 0
7 *617:7 *641:23 8.56412e-05
8 *617:11 *618:11 0
9 *617:11 *626:13 0
10 *617:11 *632:15 0.00947813
11 *617:11 *647:15 0
12 *579:11 *617:11 0
*RES
1 wbs_dat_i[30] *617:7 42.3296 
2 *617:7 *617:11 23.0591 
3 *617:11 *664:wbs_dat_i[30] 49.6964 
*END

*D_NET *618 0.0273012
*CONN
*P wbs_dat_i[31] I
*I *664:wbs_dat_i[31] I *D signal_generator
*CAP
1 wbs_dat_i[31] 0.00135644
2 *664:wbs_dat_i[31] 7.61682e-05
3 *618:13 0.00283308
4 *618:11 0.00869613
5 *618:7 0.00729567
6 *618:7 *642:9 0.00148054
7 *618:11 *630:15 0.00299548
8 *618:11 *632:15 0
9 *578:11 *618:11 0.00256768
10 *617:11 *618:11 0
*RES
1 wbs_dat_i[31] *618:7 36.8654 
2 *618:7 *618:11 25.0049 
3 *618:11 *618:13 53.5536 
4 *618:13 *664:wbs_dat_i[31] 1.60714 
*END

*D_NET *619 0.0461458
*CONN
*P wbs_dat_i[3] I
*I *664:wbs_dat_i[3] I *D signal_generator
*CAP
1 wbs_dat_i[3] 0.00226729
2 *664:wbs_dat_i[3] 0.00226509
3 *619:11 0.00864027
4 *619:7 0.00864247
5 *664:wbs_dat_i[3] wbs_dat_o[14] 0
6 *619:7 *658:15 0
7 *619:11 *626:13 0.00796886
8 *664:wb_rst_i *619:7 2.97356e-05
9 *562:11 *619:11 0
10 *567:5 *664:wbs_dat_i[3] 0
11 *568:11 *619:11 0.010857
12 *579:11 *619:11 0.00547501
13 *616:11 *619:11 0
*RES
1 wbs_dat_i[3] *619:7 49.0082 
2 *619:7 *619:11 36.3915 
3 *619:11 *664:wbs_dat_i[3] 43.0179 
*END

*D_NET *620 0.0418594
*CONN
*P wbs_dat_i[4] I
*I *664:wbs_dat_i[4] I *D signal_generator
*CAP
1 wbs_dat_i[4] 0.00167375
2 *664:wbs_dat_i[4] 7.61682e-05
3 *620:13 0.00290148
4 *620:11 0.0087928
5 *620:7 0.00764123
6 *620:11 *622:11 0
7 *564:11 *620:11 0
8 *565:13 *620:11 0
9 *566:11 *620:11 0.0106371
10 *567:5 *620:13 0
11 *578:11 *620:11 0.00668989
12 *589:11 *620:11 0.000326188
13 *591:11 *620:11 0.00191471
14 *597:11 *620:11 0.0012061
15 *600:5 *620:13 0
*RES
1 wbs_dat_i[4] *620:7 36.8654 
2 *620:7 *620:11 33.5809 
3 *620:11 *620:13 53.5536 
4 *620:13 *664:wbs_dat_i[4] 1.60714 
*END

*D_NET *621 0.0455191
*CONN
*P wbs_dat_i[5] I
*I *664:wbs_dat_i[5] I *D signal_generator
*CAP
1 wbs_dat_i[5] 0.00323093
2 *664:wbs_dat_i[5] 0.00127404
3 *621:11 0.00596031
4 *621:5 0.0079172
5 *621:11 *627:15 0.00157754
6 *664:wbs_adr_i[11] *621:11 0
7 *664:wbs_adr_i[5] *621:5 0
8 *664:wbs_dat_i[15] *621:11 0.000301786
9 *570:11 *621:11 0.0108564
10 *589:13 *621:5 0
11 *593:17 *621:11 0.0144009
*RES
1 wbs_dat_i[5] *621:5 64.4196 
2 *621:5 *621:11 35.0451 
3 *621:11 *664:wbs_dat_i[5] 24.1964 
*END

*D_NET *622 0.0389245
*CONN
*P wbs_dat_i[6] I
*I *664:wbs_dat_i[6] I *D signal_generator
*CAP
1 wbs_dat_i[6] 0.00200203
2 *664:wbs_dat_i[6] 0.00257755
3 *622:11 0.00734568
4 *622:7 0.00677015
5 *622:11 *626:13 0
6 *565:13 *622:11 0.00276265
7 *568:7 *664:wbs_dat_i[6] 0
8 *575:11 *622:11 0.00947487
9 *591:13 *622:7 0
10 *596:11 *622:11 0.00799157
11 *620:11 *622:11 0
*RES
1 wbs_dat_i[6] *622:7 42.9368 
2 *622:7 *622:11 29.6893 
3 *622:11 *664:wbs_dat_i[6] 49.0893 
*END

*D_NET *623 0.0335466
*CONN
*P wbs_dat_i[7] I
*I *664:wbs_dat_i[7] I *D signal_generator
*CAP
1 wbs_dat_i[7] 0.00137457
2 *664:wbs_dat_i[7] 7.61682e-05
3 *623:13 0.00327573
4 *623:11 0.00825435
5 *623:7 0.00642936
6 *564:11 *623:11 0.00140558
7 *568:7 *623:13 0
8 *573:11 *623:11 0.0108717
9 *576:11 *623:11 0.00185919
10 *591:11 *623:11 0
11 *601:5 *623:13 0
*RES
1 wbs_dat_i[7] *623:7 29.5796 
2 *623:7 *623:11 27.8155 
3 *623:11 *623:13 60.8393 
4 *623:13 *664:wbs_dat_i[7] 1.60714 
*END

*D_NET *624 0.0415599
*CONN
*P wbs_dat_i[8] I
*I *664:wbs_dat_i[8] I *D signal_generator
*CAP
1 wbs_dat_i[8] 0.00294856
2 *664:wbs_dat_i[8] 0.00141343
3 *624:11 0.00376139
4 *624:5 0.00529652
5 *624:11 *631:15 0.00319608
6 *664:wbs_adr_i[15] *624:5 0.000444851
7 *569:11 *624:11 0.0133216
8 *585:9 *624:11 0.000734197
9 *593:17 *624:11 0
10 *594:19 *624:11 0.00995705
11 *601:5 *664:wbs_dat_i[8] 0.000486172
*RES
1 wbs_dat_i[8] *624:5 57.7411 
2 *624:5 *624:11 29.3518 
3 *624:11 *664:wbs_dat_i[8] 30.875 
*END

*D_NET *625 0.0311183
*CONN
*P wbs_dat_i[9] I
*I *664:wbs_dat_i[9] I *D signal_generator
*CAP
1 wbs_dat_i[9] 0.00370936
2 *664:wbs_dat_i[9] 0.00526046
3 *625:5 0.00896982
4 *664:wbs_dat_i[9] *663:9 0
5 *664:wbs_adr_i[18] *625:5 0.00016452
6 *664:wbs_dat_i[16] *664:wbs_dat_i[9] 0
7 *571:15 *664:wbs_dat_i[9] 0.0128053
8 *571:15 *625:5 0
9 *605:11 *664:wbs_dat_i[9] 0.000208855
*RES
1 wbs_dat_i[9] *625:5 71.0982 
2 *625:5 *664:wbs_dat_i[9] 44.9239 
*END

*D_NET *626 0.0770596
*CONN
*P wbs_dat_o[0] O
*I *664:wbs_dat_o[0] O *D signal_generator
*CAP
1 wbs_dat_o[0] 0.000734345
2 *664:wbs_dat_o[0] 0.00227396
3 *626:23 0.00243926
4 *626:13 0.0177813
5 *626:11 0.0183504
6 *626:13 *632:15 0
7 *626:23 *662:15 0.000230039
8 *664:io_in[26] *626:23 0.00044886
9 *559:17 *626:13 0.00548875
10 *575:11 *626:13 0
11 *579:11 *626:13 0.0211627
12 *594:11 *626:23 0.000164527
13 *594:15 wbs_dat_o[0] 1.65923e-05
14 *596:11 *626:13 0
15 *617:11 *626:13 0
16 *619:11 *626:13 0.00796886
17 *622:11 *626:13 0
*RES
1 *664:wbs_dat_o[0] *626:11 47.6421 
2 *626:11 *626:13 66.9249 
3 *626:13 *626:23 41.4492 
4 *626:23 wbs_dat_o[0] 14.6339 
*END

*D_NET *627 0.0520686
*CONN
*P wbs_dat_o[10] O
*I *664:wbs_dat_o[10] O *D signal_generator
*CAP
1 wbs_dat_o[10] 0.00330871
2 *664:wbs_dat_o[10] 0.00128116
3 *627:15 0.014963
4 *627:11 0.0129355
5 *627:11 *628:13 0
6 *627:15 *629:15 0
7 *627:15 *631:15 0
8 *664:wbs_adr_i[22] wbs_dat_o[10] 0
9 *664:wbs_dat_i[15] *627:15 0.00572103
10 *664:wbs_dat_i[18] *627:15 0
11 *664:wbs_dat_i[29] *627:15 0.00711616
12 *569:11 *627:15 0
13 *576:13 wbs_dat_o[10] 0
14 *593:17 *627:15 0.00516557
15 *621:11 *627:15 0.00157754
*RES
1 *664:wbs_dat_o[10] *627:11 28.8207 
2 *627:11 *627:15 48.859 
3 *627:15 wbs_dat_o[10] 63.2054 
*END

*D_NET *628 0.0498019
*CONN
*P wbs_dat_o[11] O
*I *664:wbs_dat_o[11] O *D signal_generator
*CAP
1 wbs_dat_o[11] 0.00260137
2 *664:wbs_dat_o[11] 0.00196441
3 *628:17 0.0131642
4 *628:13 0.0125272
5 *628:17 *634:15 0
6 *664:wbs_adr_i[26] wbs_dat_o[11] 0.000153623
7 *568:11 *628:17 0
8 *574:11 *628:17 0.00649065
9 *578:13 wbs_dat_o[11] 0
10 *579:11 *628:17 0
11 *585:9 *628:17 0
12 *612:11 *628:17 0.00772365
13 *616:11 *628:17 0.00517672
14 *627:11 *628:13 0
*RES
1 *664:wbs_dat_o[11] *628:13 42.5171 
2 *628:13 *628:17 46.697 
3 *628:17 wbs_dat_o[11] 50.4554 
*END

*D_NET *629 0.051905
*CONN
*P wbs_dat_o[12] O
*I *664:wbs_dat_o[12] O *D signal_generator
*CAP
1 wbs_dat_o[12] 0.0028027
2 *664:wbs_dat_o[12] 0.000998669
3 *629:15 0.0128365
4 *629:11 0.0110325
5 *629:15 *663:9 0
6 *664:wbs_dat_i[13] *629:15 0
7 *664:wbs_dat_i[14] *629:15 0.00708341
8 *664:wbs_dat_i[17] *629:15 0.000162323
9 *664:wbs_dat_i[18] *629:15 0.000553389
10 *664:wbs_dat_i[28] *629:15 0.00891857
11 *664:wbs_dat_i[29] *629:15 0
12 *565:9 wbs_dat_o[12] 0
13 *571:15 *629:15 0.000771702
14 *582:13 wbs_dat_o[12] 0.00387397
15 *605:11 *629:15 0.00287125
16 *627:15 *629:15 0
*RES
1 *664:wbs_dat_o[12] *629:11 22.7493 
2 *629:11 *629:15 45.0395 
3 *629:15 wbs_dat_o[12] 69.2768 
*END

*D_NET *630 0.0503289
*CONN
*P wbs_dat_o[13] O
*I *664:wbs_dat_o[13] O *D signal_generator
*CAP
1 wbs_dat_o[13] 0.00171653
2 *664:wbs_dat_o[13] 7.61682e-05
3 *630:15 0.010308
4 *630:9 0.0113384
5 *630:7 0.00282306
6 *630:15 *633:15 0
7 *573:11 *630:15 0
8 *578:11 *630:15 0.0202021
9 *609:11 *630:15 0.000869155
10 *610:11 *630:15 0
11 *618:11 *630:15 0.00299548
*RES
1 *664:wbs_dat_o[13] *630:7 1.60714 
2 *630:7 *630:9 54.7679 
3 *630:9 *630:15 46.5037 
4 *630:15 wbs_dat_o[13] 32.2411 
*END

*D_NET *631 0.0518322
*CONN
*P wbs_dat_o[14] O
*I *664:wbs_dat_o[14] O *D signal_generator
*CAP
1 wbs_dat_o[14] 0.00305137
2 *664:wbs_dat_o[14] 0.00139392
3 *631:15 0.0103145
4 *631:11 0.00865703
5 *664:wbs_dat_i[2] wbs_dat_o[14] 0
6 *664:wbs_dat_i[3] wbs_dat_o[14] 0
7 *569:11 *631:15 0.000594985
8 *585:9 *631:15 0.0242326
9 *614:5 *631:11 0.000391681
10 *624:11 *631:15 0.00319608
11 *627:15 *631:15 0
*RES
1 *664:wbs_dat_o[14] *631:11 34.8921 
2 *631:11 *631:15 41.2199 
3 *631:15 wbs_dat_o[14] 57.1339 
*END

*D_NET *632 0.0461029
*CONN
*P wbs_dat_o[15] O
*I *664:wbs_dat_o[15] O *D signal_generator
*CAP
1 wbs_dat_o[15] 0.002038
2 *664:wbs_dat_o[15] 7.78712e-05
3 *632:15 0.00999946
4 *632:9 0.0104346
5 *632:7 0.00255098
6 *575:11 *632:15 0.0112438
7 *578:11 *632:15 0
8 *597:11 *632:15 0
9 *607:11 *632:15 0.000280038
10 *614:5 *632:9 0
11 *617:11 *632:15 0.00947813
12 *618:11 *632:15 0
13 *626:13 *632:15 0
*RES
1 *664:wbs_dat_o[15] *632:7 1.60714 
2 *632:7 *632:9 48.6964 
3 *632:9 *632:15 42.6841 
4 *632:15 wbs_dat_o[15] 38.3125 
*END

*D_NET *633 0.0421384
*CONN
*P wbs_dat_o[16] O
*I *664:wbs_dat_o[16] O *D signal_generator
*CAP
1 wbs_dat_o[16] 0.00140109
2 *664:wbs_dat_o[16] 7.61682e-05
3 *633:15 0.00909479
4 *633:9 0.0107055
5 *633:7 0.00308795
6 *573:11 *633:15 0.00579926
7 *576:11 *633:15 0.00158856
8 *577:11 *633:15 0
9 *580:11 *633:15 0
10 *581:11 *633:15 0
11 *582:11 *633:15 0
12 *608:11 *633:15 0.000758532
13 *610:11 *633:15 0.000844006
14 *613:11 *633:15 0.00878259
15 *630:15 *633:15 0
*RES
1 *664:wbs_dat_o[16] *633:7 1.60714 
2 *633:7 *633:9 60.8393 
3 *633:9 *633:15 40.7383 
4 *633:15 wbs_dat_o[16] 26.1696 
*END

*D_NET *634 0.0413693
*CONN
*P wbs_dat_o[17] O
*I *664:wbs_dat_o[17] O *D signal_generator
*CAP
1 wbs_dat_o[17] 0.00220572
2 *664:wbs_dat_o[17] 0.00212243
3 *634:15 0.0108578
4 *634:11 0.0107745
5 *579:11 *634:15 0.0145185
6 *597:15 wbs_dat_o[17] 0.000890265
7 *615:5 *634:11 0
8 *628:17 *634:15 0
*RES
1 *664:wbs_dat_o[17] *634:11 46.4279 
2 *634:11 *634:15 35.4546 
3 *634:15 wbs_dat_o[17] 45.5982 
*END

*D_NET *635 0.0539486
*CONN
*P wbs_dat_o[18] O
*I *664:wbs_dat_o[18] O *D signal_generator
*CAP
1 wbs_dat_o[18] 0.00330698
2 *664:wbs_dat_o[18] 7.61682e-05
3 *635:13 0.00429841
4 *635:11 0.00099143
5 *635:9 0.0035303
6 *635:7 0.00360647
7 wbs_dat_o[18] wbs_dat_o[21] 2.83574e-05
8 wbs_dat_o[18] wbs_dat_o[24] 0.000620169
9 wbs_dat_o[18] *641:23 0.00288503
10 wbs_dat_o[18] *652:9 0
11 wbs_dat_o[18] *654:21 0.00863385
12 wbs_dat_o[18] *656:23 0.0102104
13 wbs_dat_o[18] *660:15 4.6025e-06
14 wbs_dat_o[18] *662:17 0.000994963
15 *635:9 wbs_dat_o[29] 0
16 *635:13 wbs_dat_o[24] 0.000769998
17 *635:13 wbs_dat_o[27] 0.000450641
18 *635:13 *636:13 0.00442048
19 *635:13 *656:19 0.00178422
20 *635:13 *660:17 0.0069755
21 *635:13 *662:17 0.000201672
22 *611:11 wbs_dat_o[18] 0.000158969
23 *615:5 *635:9 0
*RES
1 *664:wbs_dat_o[18] *635:7 1.60714 
2 *635:7 *635:9 71.0089 
3 *635:9 *635:11 4.5 
4 *635:11 *635:13 66.25 
5 *635:13 wbs_dat_o[18] 45.9411 
*END

*D_NET *636 0.0473731
*CONN
*P wbs_dat_o[19] O
*I *664:wbs_dat_o[19] O *D signal_generator
*CAP
1 wbs_dat_o[19] 0.00341088
2 *664:wbs_dat_o[19] 7.61682e-05
3 *636:13 0.00417699
4 *636:11 0.000766114
5 *636:9 0.0035817
6 *636:7 0.00365787
7 wbs_dat_o[19] wbs_dat_o[20] 0.00151241
8 wbs_dat_o[19] wbs_dat_o[21] 0.0090407
9 wbs_dat_o[19] wbs_dat_o[22] 0.007326
10 wbs_dat_o[19] *637:19 0
11 wbs_dat_o[19] *648:21 0.00232678
12 wbs_dat_o[19] *654:21 0.00183166
13 *636:9 wbs_dat_o[29] 0
14 *636:13 wbs_dat_o[24] 0.000721391
15 *636:13 *638:15 0.00359482
16 *636:13 *640:19 0.000354597
17 *636:13 *660:17 8.65793e-05
18 *636:13 *662:17 0.000487971
19 *580:7 wbs_dat_o[19] 0
20 *584:7 *636:9 0
21 *635:13 *636:13 0.00442048
*RES
1 *664:wbs_dat_o[19] *636:7 1.60714 
2 *636:7 *636:9 71.3125 
3 *636:9 *636:11 4.5 
4 *636:11 *636:13 46.9464 
5 *636:13 wbs_dat_o[19] 47.1509 
*END

*D_NET *637 0.0829227
*CONN
*P wbs_dat_o[1] O
*I *664:wbs_dat_o[1] O *D signal_generator
*CAP
1 wbs_dat_o[1] 0.000550818
2 *664:wbs_dat_o[1] 7.61682e-05
3 *637:21 0.0128999
4 *637:19 0.0126607
5 *637:13 0.00152181
6 *637:11 0.00121013
7 *637:9 0.00370625
8 *637:7 0.00378242
9 *637:13 *648:13 0.00537629
10 *637:13 *652:21 0.000895197
11 *637:13 *660:17 0.00789197
12 *637:13 *662:17 0.000662094
13 *637:21 *648:21 0.0304863
14 *637:21 *658:15 0.0012027
15 io_oeb[26] *637:21 0
16 wbs_dat_o[19] *637:19 0
17 *577:7 *637:9 0
18 *604:5 *637:19 0
19 *610:11 *637:9 0
*RES
1 *664:wbs_dat_o[1] *637:7 1.60714 
2 *637:7 *637:9 71.0089 
3 *637:9 *637:11 4.5 
4 *637:11 *637:13 74.875 
5 *637:13 *637:19 13.0439 
6 *637:19 *637:21 52.2953 
7 *637:21 wbs_dat_o[1] 14.4011 
*END

*D_NET *638 0.0373278
*CONN
*P wbs_dat_o[20] O
*I *664:wbs_dat_o[20] O *D signal_generator
*CAP
1 wbs_dat_o[20] 0.00544707
2 *664:wbs_dat_o[20] 7.61682e-05
3 *638:15 0.00616688
4 *638:9 0.00429449
5 *638:7 0.00365085
6 wbs_dat_o[20] wbs_dat_o[22] 0.00871595
7 wbs_dat_o[20] wbs_dat_o[27] 0.000344106
8 wbs_dat_o[20] *648:21 0.000574469
9 *638:15 wbs_dat_o[24] 0.000442856
10 *638:15 *640:19 0.000279661
11 *638:15 *662:17 0.0022281
12 wbs_dat_o[19] wbs_dat_o[20] 0.00151241
13 *584:7 *638:9 0
14 *617:7 *638:9 0
15 *636:13 *638:15 0.00359482
*RES
1 *664:wbs_dat_o[20] *638:7 1.60714 
2 *638:7 *638:9 71.6161 
3 *638:9 *638:15 48.1429 
4 *638:15 wbs_dat_o[20] 41.7708 
*END

*D_NET *639 0.0417158
*CONN
*P wbs_dat_o[21] O
*I *664:wbs_dat_o[21] O *D signal_generator
*CAP
1 wbs_dat_o[21] 0.00310727
2 *664:wbs_dat_o[21] 7.61682e-05
3 *639:19 0.00432861
4 *639:9 0.00467026
5 *639:7 0.00352508
6 wbs_dat_o[21] wbs_dat_o[22] 0.00174894
7 wbs_dat_o[21] *641:23 0.00892275
8 wbs_dat_o[21] *654:21 0.00341706
9 *639:9 wbs_dat_o[30] 0
10 *639:19 wbs_dat_o[28] 0.000121926
11 *639:19 *658:17 0.00272869
12 wbs_dat_o[18] wbs_dat_o[21] 2.83574e-05
13 wbs_dat_o[19] wbs_dat_o[21] 0.0090407
14 *582:7 *639:19 0
15 *617:7 *639:9 0
*RES
1 *664:wbs_dat_o[21] *639:7 1.60714 
2 *639:7 *639:9 70.0982 
3 *639:9 *639:19 42.6332 
4 *639:19 wbs_dat_o[21] 36.0158 
*END

*D_NET *640 0.0379573
*CONN
*P wbs_dat_o[22] O
*I *664:wbs_dat_o[22] O *D signal_generator
*CAP
1 wbs_dat_o[22] 0.00370457
2 *664:wbs_dat_o[22] 7.78712e-05
3 *640:19 0.00427995
4 *640:9 0.00349198
5 *640:7 0.00299447
6 wbs_dat_o[22] *641:23 0.000460699
7 *640:9 wbs_dat_o[30] 0.00167741
8 *640:19 wbs_dat_o[27] 0.00011307
9 *640:19 wbs_dat_o[29] 0.000100441
10 *640:19 *641:23 0.000617128
11 *640:19 *660:17 0.00190614
12 *640:19 *662:17 0.000108437
13 wbs_dat_o[19] wbs_dat_o[22] 0.007326
14 wbs_dat_o[20] wbs_dat_o[22] 0.00871595
15 wbs_dat_o[21] wbs_dat_o[22] 0.00174894
16 *585:5 *640:9 0
17 *615:5 *640:19 0
18 *636:13 *640:19 0.000354597
19 *638:15 *640:19 0.000279661
*RES
1 *664:wbs_dat_o[22] *640:7 1.60714 
2 *640:7 *640:9 71.0089 
3 *640:9 *640:19 35.1332 
4 *640:19 wbs_dat_o[22] 34.297 
*END

*D_NET *641 0.0371992
*CONN
*P wbs_dat_o[23] O
*I *664:wbs_dat_o[23] O *D signal_generator
*CAP
1 wbs_dat_o[23] 0.000705549
2 *664:wbs_dat_o[23] 7.61682e-05
3 *641:23 0.00362444
4 *641:9 0.00581878
5 *641:7 0.00297605
6 wbs_dat_o[23] *654:19 4.6025e-06
7 *641:23 wbs_dat_o[24] 0.000301954
8 *641:23 wbs_dat_o[25] 0.00818236
9 *641:23 *660:17 0.000279226
10 *641:23 *662:17 0.000413574
11 wbs_dat_o[18] *641:23 0.00288503
12 wbs_dat_o[21] *641:23 0.00892275
13 wbs_dat_o[22] *641:23 0.000460699
14 *585:5 *641:9 0.00184526
15 *617:7 *641:23 8.56412e-05
16 *640:19 *641:23 0.000617128
*RES
1 *664:wbs_dat_o[23] *641:7 1.60714 
2 *641:7 *641:9 71.3125 
3 *641:9 *641:23 47.6656 
4 *641:23 wbs_dat_o[23] 13.4196 
*END

*D_NET *642 0.0395036
*CONN
*P wbs_dat_o[24] O
*I *664:wbs_dat_o[24] O *D signal_generator
*CAP
1 wbs_dat_o[24] 0.00543546
2 *664:wbs_dat_o[24] 7.61682e-05
3 *642:9 0.00866119
4 *642:7 0.00330189
5 wbs_dat_o[24] wbs_dat_o[25] 0.000917403
6 wbs_dat_o[24] wbs_dat_o[26] 0.00815938
7 wbs_dat_o[24] wbs_dat_o[27] 0.00641348
8 wbs_dat_o[24] *656:19 0.000365799
9 wbs_dat_o[24] *658:17 0.000143439
10 wbs_dat_o[24] *660:17 0.000378245
11 wbs_dat_o[24] *662:17 0.00131427
12 wbs_dat_o[18] wbs_dat_o[24] 0.000620169
13 *584:9 wbs_dat_o[24] 0
14 *618:7 *642:9 0.00148054
15 *635:13 wbs_dat_o[24] 0.000769998
16 *636:13 wbs_dat_o[24] 0.000721391
17 *638:15 wbs_dat_o[24] 0.000442856
18 *641:23 wbs_dat_o[24] 0.000301954
*RES
1 *664:wbs_dat_o[24] *642:7 1.60714 
2 *642:7 *642:9 71.7679 
3 *642:9 wbs_dat_o[24] 40.7013 
*END

*D_NET *643 0.0328277
*CONN
*P wbs_dat_o[25] O
*I *664:wbs_dat_o[25] O *D signal_generator
*CAP
1 wbs_dat_o[25] 0.00321241
2 *664:wbs_dat_o[25] 0.000858091
3 *643:13 0.00582541
4 *643:11 0.00347109
5 wbs_dat_o[25] wbs_dat_o[26] 0.00866061
6 *643:13 wbs_dat_o[31] 0.00170033
7 wbs_dat_o[24] wbs_dat_o[25] 0.000917403
8 *641:23 wbs_dat_o[25] 0.00818236
*RES
1 *664:wbs_dat_o[25] *643:11 16.6786 
2 *643:11 *643:13 58.5714 
3 *643:13 wbs_dat_o[25] 37.4691 
*END

*D_NET *644 0.0337983
*CONN
*P wbs_dat_o[26] O
*I *664:wbs_dat_o[26] O *D signal_generator
*CAP
1 wbs_dat_o[26] 0.00334654
2 *664:wbs_dat_o[26] 7.61682e-05
3 *644:9 0.00693824
4 *644:7 0.00366787
5 wbs_dat_o[26] wbs_dat_o[27] 0.0005562
6 wbs_dat_o[26] *662:17 0.0023933
7 wbs_dat_o[24] wbs_dat_o[26] 0.00815938
8 wbs_dat_o[25] wbs_dat_o[26] 0.00866061
*RES
1 *664:wbs_dat_o[26] *644:7 1.60714 
2 *644:7 *644:9 72.375 
3 *644:9 wbs_dat_o[26] 36.2746 
*END

*D_NET *645 0.0294606
*CONN
*P wbs_dat_o[27] O
*I *664:wbs_dat_o[27] O *D signal_generator
*CAP
1 wbs_dat_o[27] 0.00335884
2 *664:wbs_dat_o[27] 7.61682e-05
3 *645:9 0.00687786
4 *645:7 0.0035952
5 wbs_dat_o[27] wbs_dat_o[28] 0.00630716
6 wbs_dat_o[27] *658:17 0.000333271
7 wbs_dat_o[27] *660:17 0.00103459
8 wbs_dat_o[20] wbs_dat_o[27] 0.000344106
9 wbs_dat_o[24] wbs_dat_o[27] 0.00641348
10 wbs_dat_o[26] wbs_dat_o[27] 0.0005562
11 *584:9 wbs_dat_o[27] 0
12 *635:13 wbs_dat_o[27] 0.000450641
13 *640:19 wbs_dat_o[27] 0.00011307
*RES
1 *664:wbs_dat_o[27] *645:7 1.60714 
2 *645:7 *645:9 71.1607 
3 *645:9 wbs_dat_o[27] 35.5431 
*END

*D_NET *646 0.02281
*CONN
*P wbs_dat_o[28] O
*I *664:wbs_dat_o[28] O *D signal_generator
*CAP
1 wbs_dat_o[28] 0.00437012
2 *664:wbs_dat_o[28] 7.61682e-05
3 *646:9 0.00784654
4 *646:7 0.00355259
5 wbs_dat_o[28] *658:17 0.000424007
6 wbs_dat_o[28] *660:17 0.000111451
7 wbs_dat_o[27] wbs_dat_o[28] 0.00630716
8 *584:9 wbs_dat_o[28] 0
9 *639:19 wbs_dat_o[28] 0.000121926
*RES
1 *664:wbs_dat_o[28] *646:7 1.60714 
2 *646:7 *646:9 70.5536 
3 *646:9 wbs_dat_o[28] 34.2765 
*END

*D_NET *647 0.0158901
*CONN
*P wbs_dat_o[29] O
*I *664:wbs_dat_o[29] O *D signal_generator
*CAP
1 wbs_dat_o[29] 0.00227447
2 *664:wbs_dat_o[29] 0.00224746
3 *647:15 0.00564736
4 *647:11 0.00562035
5 *647:11 *649:13 0
6 *617:11 *647:15 0
7 *635:9 wbs_dat_o[29] 0
8 *636:9 wbs_dat_o[29] 0
9 *640:19 wbs_dat_o[29] 0.000100441
*RES
1 *664:wbs_dat_o[29] *647:11 47.6421 
2 *647:11 *647:15 12.4653 
3 *647:15 wbs_dat_o[29] 44.3839 
*END

*D_NET *648 0.0844131
*CONN
*P wbs_dat_o[2] O
*I *664:wbs_dat_o[2] O *D signal_generator
*CAP
1 wbs_dat_o[2] 0.000580537
2 *664:wbs_dat_o[2] 7.61682e-05
3 *648:21 0.00927204
4 *648:19 0.00887819
5 *648:13 0.00105059
6 *648:11 0.000863902
7 *648:9 0.00370953
8 *648:7 0.00378569
9 *648:9 *656:19 9.15842e-06
10 *648:13 *651:13 0.00485775
11 *648:13 *651:21 0.000221781
12 *648:13 *652:21 0.000246627
13 *648:13 *656:23 0.000225323
14 *648:13 *660:17 0.000279661
15 *648:13 *662:17 0.000376658
16 *648:21 *654:21 0.00735211
17 *648:21 *658:15 0.00203082
18 *648:21 *660:11 0.00104794
19 wbs_dat_o[19] *648:21 0.00232678
20 wbs_dat_o[20] *648:21 0.000574469
21 *572:11 *648:21 0.000463612
22 *574:5 *648:19 0.000321187
23 *610:11 *648:9 0
24 *637:13 *648:13 0.00537629
25 *637:21 *648:21 0.0304863
*RES
1 *664:wbs_dat_o[2] *648:7 1.60714 
2 *648:7 *648:9 71.3125 
3 *648:9 *648:11 4.5 
4 *648:11 *648:13 55.9821 
5 *648:13 *648:19 12.1332 
6 *648:19 *648:21 52.7998 
7 *648:21 wbs_dat_o[2] 15.0082 
*END

*D_NET *649 0.0169461
*CONN
*P wbs_dat_o[30] O
*I *664:wbs_dat_o[30] O *D signal_generator
*CAP
1 wbs_dat_o[30] 0.00321858
2 *664:wbs_dat_o[30] 0.00223049
3 *649:13 0.00544907
4 *649:13 *661:9 0.00437055
5 *639:9 wbs_dat_o[30] 0
6 *640:9 wbs_dat_o[30] 0.00167741
7 *647:11 *649:13 0
*RES
1 *664:wbs_dat_o[30] *649:13 26.2669 
2 *649:13 wbs_dat_o[30] 77.1696 
*END

*D_NET *650 0.0134228
*CONN
*P wbs_dat_o[31] O
*I *664:wbs_dat_o[31] O *D signal_generator
*CAP
1 wbs_dat_o[31] 0.0032535
2 *664:wbs_dat_o[31] 7.61682e-05
3 *650:9 0.00578507
4 *650:7 0.00260774
5 *643:13 wbs_dat_o[31] 0.00170033
*RES
1 *664:wbs_dat_o[31] *650:7 1.60714 
2 *650:7 *650:9 51.7321 
3 *650:9 wbs_dat_o[31] 47.3326 
*END

*D_NET *651 0.0940889
*CONN
*P wbs_dat_o[3] O
*I *664:wbs_dat_o[3] O *D signal_generator
*CAP
1 wbs_dat_o[3] 0.000803001
2 *664:wbs_dat_o[3] 7.61682e-05
3 *651:21 0.00753663
4 *651:19 0.00675511
5 *651:13 0.000792563
6 *651:11 0.000771083
7 *651:9 0.00373291
8 *651:7 0.00380908
9 wbs_dat_o[3] *658:15 0
10 *651:13 *652:15 0.00373058
11 *651:13 *652:21 0.000264176
12 *651:13 *656:19 0.000485388
13 *651:13 *656:23 0.000481369
14 *651:13 *660:17 9.85599e-06
15 *651:13 *662:17 0.000897282
16 *651:21 *652:21 0.0295284
17 *651:21 *656:23 0.0225538
18 *651:21 *660:11 0.00486169
19 *651:21 *662:17 0.00192034
20 *578:7 *651:9 0
21 *648:13 *651:13 0.00485775
22 *648:13 *651:21 0.000221781
*RES
1 *664:wbs_dat_o[3] *651:7 1.60714 
2 *651:7 *651:9 71.6161 
3 *651:9 *651:11 4.5 
4 *651:11 *651:13 51.0536 
5 *651:13 *651:19 8.18679 
6 *651:19 *651:21 50.7819 
7 *651:21 wbs_dat_o[3] 18.6511 
*END

*D_NET *652 0.0820125
*CONN
*P wbs_dat_o[4] O
*I *664:wbs_dat_o[4] O *D signal_generator
*CAP
1 wbs_dat_o[4] 0.000816021
2 *664:wbs_dat_o[4] 7.61682e-05
3 *652:21 0.0142761
4 *652:19 0.0135243
5 *652:15 0.000653585
6 *652:9 0.00433536
7 *652:7 0.00382225
8 *652:7 *653:9 0
9 *652:9 *653:9 0
10 *652:15 *656:19 0.000279661
11 *652:15 *656:23 0.000629952
12 *652:15 *662:17 0.00425123
13 *652:21 *656:23 0.000904365
14 *652:21 *660:17 0.0012803
15 *652:21 *662:17 0.00041847
16 wbs_dat_o[18] *652:9 0
17 *578:7 *652:9 0
18 *581:11 *652:21 0
19 *584:9 *652:21 0
20 *590:11 *652:21 0.00207976
21 *608:11 *652:19 0
22 *611:11 *652:9 0
23 *611:11 *652:21 0
24 *637:13 *652:21 0.000895197
25 *648:13 *652:21 0.000246627
26 *651:13 *652:15 0.00373058
27 *651:13 *652:21 0.000264176
28 *651:21 *652:21 0.0295284
*RES
1 *664:wbs_dat_o[4] *652:7 1.60714 
2 *652:7 *652:9 71.9196 
3 *652:9 *652:15 49.375 
4 *652:15 *652:19 4.29393 
5 *652:19 *652:21 49.8451 
6 *652:21 wbs_dat_o[4] 19.2582 
*END

*D_NET *653 0.0869207
*CONN
*P wbs_dat_o[5] O
*I *664:wbs_dat_o[5] O *D signal_generator
*CAP
1 wbs_dat_o[5] 0.00390298
2 *664:wbs_dat_o[5] 0.000628511
3 *653:13 0.00390298
4 *653:11 0.0056795
5 *653:9 0.00630801
6 *653:11 *655:11 0.0314559
7 *653:11 *661:9 0.0350428
8 *589:13 wbs_dat_o[5] 0
9 *590:13 wbs_dat_o[5] 0
10 *652:7 *653:9 0
11 *652:9 *653:9 0
*RES
1 *664:wbs_dat_o[5] *653:9 15.9636 
2 *653:9 *653:11 54.6735 
3 *653:11 *653:13 3.41 
4 *653:13 wbs_dat_o[5] 77.1696 
*END

*D_NET *654 0.0719685
*CONN
*P wbs_dat_o[6] O
*I *664:wbs_dat_o[6] O *D signal_generator
*CAP
1 wbs_dat_o[6] 0.000676062
2 *664:wbs_dat_o[6] 7.61682e-05
3 *654:21 0.00804509
4 *654:19 0.00878972
5 *654:9 0.00502777
6 *654:7 0.00368325
7 *654:7 *655:9 0
8 *654:9 *655:9 0
9 *654:19 *658:17 0.00355465
10 *654:21 *656:23 3.22206e-05
11 *654:21 *660:11 0.0208443
12 wbs_dat_o[18] *654:21 0.00863385
13 wbs_dat_o[19] *654:21 0.00183166
14 wbs_dat_o[21] *654:21 0.00341706
15 wbs_dat_o[23] *654:19 4.6025e-06
16 *579:7 *654:9 0
17 *648:21 *654:21 0.00735211
*RES
1 *664:wbs_dat_o[6] *654:7 1.60714 
2 *654:7 *654:9 70.0982 
3 *654:9 *654:19 49.8296 
4 *654:19 *654:21 47.1786 
5 *654:21 wbs_dat_o[6] 16.8296 
*END

*D_NET *655 0.0833686
*CONN
*P wbs_dat_o[7] O
*I *664:wbs_dat_o[7] O *D signal_generator
*CAP
1 wbs_dat_o[7] 0.00328327
2 *664:wbs_dat_o[7] 0.000590664
3 *655:13 0.00328327
4 *655:11 0.00595478
5 *655:9 0.00654545
6 *655:11 *657:11 0.028426
7 *655:11 *661:9 0.000648616
8 *565:17 wbs_dat_o[7] 0.00318069
9 *653:11 *655:11 0.0314559
10 *654:7 *655:9 0
11 *654:9 *655:9 0
*RES
1 *664:wbs_dat_o[7] *655:9 15.3564 
2 *655:9 *655:11 50.854 
3 *655:11 *655:13 3.41 
4 *655:13 wbs_dat_o[7] 77.7768 
*END

*D_NET *656 0.0868045
*CONN
*P wbs_dat_o[8] O
*I *664:wbs_dat_o[8] O *D signal_generator
*CAP
1 wbs_dat_o[8] 0.00075295
2 *664:wbs_dat_o[8] 7.61682e-05
3 *656:23 0.00767708
4 *656:19 0.00759417
5 *656:9 0.0037985
6 *656:7 0.00320463
7 *656:7 *657:9 0
8 *656:9 *657:9 0
9 *656:19 *660:17 0.000699683
10 *656:19 *662:17 0.000761454
11 *656:23 *660:11 0.01738
12 *656:23 *662:17 0.00535821
13 wbs_dat_o[18] *656:23 0.0102104
14 wbs_dat_o[24] *656:19 0.000365799
15 *610:11 *656:19 0
16 *611:11 *656:23 0
17 *612:5 *656:9 0.00153999
18 *635:13 *656:19 0.00178422
19 *648:9 *656:19 9.15842e-06
20 *648:13 *656:23 0.000225323
21 *651:13 *656:19 0.000485388
22 *651:13 *656:23 0.000481369
23 *651:21 *656:23 0.0225538
24 *652:15 *656:19 0.000279661
25 *652:15 *656:23 0.000629952
26 *652:21 *656:23 0.000904365
27 *654:21 *656:23 3.22206e-05
*RES
1 *664:wbs_dat_o[8] *656:7 1.60714 
2 *656:7 *656:9 71.3125 
3 *656:9 *656:19 42.8832 
4 *656:19 *656:23 47.5618 
5 *656:23 wbs_dat_o[8] 14.6339 
*END

*D_NET *657 0.0600008
*CONN
*P wbs_dat_o[9] O
*I *664:wbs_dat_o[9] O *D signal_generator
*CAP
1 wbs_dat_o[9] 0.00410501
2 *664:wbs_dat_o[9] 0.000552816
3 *657:13 0.00410501
4 *657:11 0.0109143
5 *657:9 0.0114671
6 *657:11 *661:9 0.000430624
7 *571:15 wbs_dat_o[9] 0
8 *573:13 wbs_dat_o[9] 0
9 *655:11 *657:11 0.028426
10 *656:7 *657:9 0
11 *656:9 *657:9 0
*RES
1 *664:wbs_dat_o[9] *657:9 14.7493 
2 *657:9 *657:11 47.0345 
3 *657:11 *657:13 3.41 
4 *657:13 wbs_dat_o[9] 78.3839 
*END

*D_NET *658 0.0926378
*CONN
*P wbs_sel_i[0] I
*I *664:wbs_sel_i[0] I *D signal_generator
*CAP
1 wbs_sel_i[0] 0.00240683
2 *664:wbs_sel_i[0] 7.78712e-05
3 *658:21 0.00363368
4 *658:19 0.00355581
5 *658:17 0.0195957
6 *658:15 0.0220025
7 *658:15 *662:15 0.00499649
8 *658:17 *660:17 0.0254003
9 *658:17 *662:17 0
10 *658:21 *664:wbs_sel_i[1] 0
11 io_oeb[26] *658:15 0
12 wbs_dat_o[24] *658:17 0.000143439
13 wbs_dat_o[27] *658:17 0.000333271
14 wbs_dat_o[28] *658:17 0.000424007
15 wbs_dat_o[3] *658:15 0
16 *572:11 *658:15 0.000551068
17 *619:7 *658:15 0
18 *637:21 *658:15 0.0012027
19 *639:19 *658:17 0.00272869
20 *648:21 *658:15 0.00203082
21 *654:19 *658:17 0.00355465
*RES
1 wbs_sel_i[0] *658:15 37.684 
2 *658:15 *658:17 486.411 
3 *658:17 *658:19 4.5 
4 *658:19 *658:21 70.4018 
5 *658:21 *664:wbs_sel_i[0] 1.60714 
*END

*D_NET *659 0.142226
*CONN
*P wbs_sel_i[1] I
*I *664:wbs_sel_i[1] I *D signal_generator
*CAP
1 wbs_sel_i[1] 0.00384997
2 *664:wbs_sel_i[1] 0.000689323
3 *659:9 0.00967229
4 *659:7 0.00898297
5 *659:5 0.00384997
6 *659:9 *661:9 0.0540978
7 *659:9 *663:9 0.058779
8 *664:wbs_adr_i[2] *659:9 0.00230493
9 *658:21 *664:wbs_sel_i[1] 0
*RES
1 wbs_sel_i[1] *659:5 75.9554 
2 *659:5 *659:7 3.41 
3 *659:7 *659:9 91.8599 
4 *659:9 *664:wbs_sel_i[1] 17.1779 
*END

*D_NET *660 0.125306
*CONN
*P wbs_sel_i[2] I
*I *664:wbs_sel_i[2] I *D signal_generator
*CAP
1 wbs_sel_i[2] 0.000731927
2 *664:wbs_sel_i[2] 7.61682e-05
3 *660:21 0.0035183
4 *660:19 0.00344213
5 *660:17 0.00474892
6 *660:15 0.0049044
7 *660:11 0.00657557
8 *660:7 0.00715201
9 *664:wbs_sel_i[2] *664:wbs_sel_i[3] 0
10 *660:11 *662:17 0.000111084
11 *660:17 *662:17 0.000703199
12 *660:21 *664:wbs_sel_i[3] 0
13 wbs_dat_o[18] *660:15 4.6025e-06
14 wbs_dat_o[24] *660:17 0.000378245
15 wbs_dat_o[27] *660:17 0.00103459
16 wbs_dat_o[28] *660:17 0.000111451
17 *572:11 *660:11 0.00287077
18 *635:13 *660:17 0.0069755
19 *636:13 *660:17 8.65793e-05
20 *637:13 *660:17 0.00789197
21 *640:19 *660:17 0.00190614
22 *641:23 *660:17 0.000279226
23 *648:13 *660:17 0.000279661
24 *648:21 *660:11 0.00104794
25 *651:13 *660:17 9.85599e-06
26 *651:21 *660:11 0.00486169
27 *652:21 *660:17 0.0012803
28 *654:21 *660:11 0.0208443
29 *656:19 *660:17 0.000699683
30 *656:23 *660:11 0.01738
31 *658:17 *660:17 0.0254003
*RES
1 wbs_sel_i[2] *660:7 17.4368 
2 *660:7 *660:11 48.7149 
3 *660:11 *660:15 6.90179 
4 *660:15 *660:17 251.071 
5 *660:17 *660:19 4.5 
6 *660:19 *660:21 70.7054 
7 *660:21 *664:wbs_sel_i[2] 1.60714 
*END

*D_NET *661 0.127203
*CONN
*P wbs_sel_i[3] I
*I *664:wbs_sel_i[3] I *D signal_generator
*CAP
1 wbs_sel_i[3] 0.00348479
2 *664:wbs_sel_i[3] 0.000640212
3 *661:9 0.011204
4 *661:7 0.0105638
5 *661:5 0.00348479
6 *661:9 *663:9 0.000648616
7 *664:wbs_adr_i[0] *661:5 0.00162367
8 *664:wbs_adr_i[2] *661:9 0.000962247
9 *664:wbs_sel_i[2] *664:wbs_sel_i[3] 0
10 *649:13 *661:9 0.00437055
11 *653:11 *661:9 0.0350428
12 *655:11 *661:9 0.000648616
13 *657:11 *661:9 0.000430624
14 *659:9 *661:9 0.0540978
15 *660:21 *664:wbs_sel_i[3] 0
*RES
1 wbs_sel_i[3] *661:5 76.5625 
2 *661:5 *661:7 3.41 
3 *661:7 *661:9 86.2387 
4 *661:9 *664:wbs_sel_i[3] 16.5707 
*END

*D_NET *662 0.0950333
*CONN
*P wbs_stb_i I
*I *664:wbs_stb_i I *D signal_generator
*CAP
1 wbs_stb_i 0.00326909
2 *664:wbs_stb_i 7.61682e-05
3 *662:21 0.00358228
4 *662:19 0.00350612
5 *662:17 0.0237439
6 *662:15 0.027013
7 *664:wbs_stb_i *664:wbs_we_i 0
8 *662:21 *664:wbs_we_i 0
9 wbs_dat_o[18] *662:17 0.000994963
10 wbs_dat_o[24] *662:17 0.00131427
11 wbs_dat_o[26] *662:17 0.0023933
12 *664:io_in[26] *662:15 0.000188936
13 *572:11 *662:15 0.00444807
14 *586:5 *662:15 0
15 *594:11 *662:15 0.000376944
16 *626:23 *662:15 0.000230039
17 *635:13 *662:17 0.000201672
18 *636:13 *662:17 0.000487971
19 *637:13 *662:17 0.000662094
20 *638:15 *662:17 0.0022281
21 *640:19 *662:17 0.000108437
22 *641:23 *662:17 0.000413574
23 *648:13 *662:17 0.000376658
24 *651:13 *662:17 0.000897282
25 *651:21 *662:17 0.00192034
26 *652:15 *662:17 0.00425123
27 *652:21 *662:17 0.00041847
28 *656:19 *662:17 0.000761454
29 *656:23 *662:17 0.00535821
30 *658:15 *662:15 0.00499649
31 *658:17 *662:17 0
32 *660:11 *662:17 0.000111084
33 *660:17 *662:17 0.000703199
*RES
1 wbs_stb_i *662:15 38.8894 
2 *662:15 *662:17 515.571 
3 *662:17 *662:19 4.5 
4 *662:19 *662:21 72.2232 
5 *662:21 *664:wbs_stb_i 1.60714 
*END

*D_NET *663 0.117864
*CONN
*P wbs_we_i I
*I *664:wbs_we_i I *D signal_generator
*CAP
1 wbs_we_i 0.00375984
2 *664:wbs_we_i 0.000699625
3 *663:9 0.0228253
4 *663:7 0.0221257
5 *663:5 0.00375984
6 *664:wbs_adr_i[3] *663:9 0.000868001
7 *664:wbs_dat_i[16] *663:9 0.00439763
8 *664:wbs_dat_i[17] *663:9 0
9 *664:wbs_dat_i[28] *663:9 0
10 *664:wbs_dat_i[9] *663:9 0
11 *664:wbs_stb_i *664:wbs_we_i 0
12 *560:15 *663:9 0
13 *605:11 *663:9 0
14 *629:15 *663:9 0
15 *659:9 *663:9 0.058779
16 *661:9 *663:9 0.000648616
17 *662:21 *664:wbs_we_i 0
*RES
1 wbs_we_i *663:5 75.3482 
2 *663:5 *663:7 3.41 
3 *663:7 *663:9 102.742 
4 *663:9 *664:wbs_we_i 17.785 
*END
