*SPEF "ieee 1481-1999"
*DESIGN "user_analog_project_wrapper"
*DATE "11:11:11 Fri 11 11, 1111"
*VENDOR "OpenRCX"
*PROGRAM "Parallel Extraction"
*VERSION "1.0"
*DESIGN_FLOW "NAME_SCOPE LOCAL" "PIN_CAP NONE"
*DIVIDER /
*DELIMITER :
*BUS_DELIMITER []
*T_UNIT 1 NS
*C_UNIT 1 PF
*R_UNIT 1 OHM
*L_UNIT 1 HENRY

*NAME_MAP
*1 gpio_analog[0]
*2 gpio_analog[10]
*3 gpio_analog[11]
*4 gpio_analog[12]
*5 gpio_analog[13]
*6 gpio_analog[14]
*7 gpio_analog[15]
*8 gpio_analog[16]
*9 gpio_analog[17]
*10 gpio_analog[1]
*11 gpio_analog[2]
*12 gpio_analog[3]
*13 gpio_analog[4]
*14 gpio_analog[5]
*15 gpio_analog[6]
*16 gpio_analog[7]
*17 gpio_analog[8]
*18 gpio_analog[9]
*19 gpio_noesd[0]
*20 gpio_noesd[10]
*21 gpio_noesd[11]
*22 gpio_noesd[12]
*23 gpio_noesd[13]
*24 gpio_noesd[14]
*25 gpio_noesd[15]
*26 gpio_noesd[16]
*27 gpio_noesd[17]
*28 gpio_noesd[1]
*29 gpio_noesd[2]
*30 gpio_noesd[3]
*31 gpio_noesd[4]
*32 gpio_noesd[5]
*33 gpio_noesd[6]
*34 gpio_noesd[7]
*35 gpio_noesd[8]
*36 gpio_noesd[9]
*37 io_analog[0]
*38 io_analog[10]
*39 io_analog[1]
*40 io_analog[2]
*41 io_analog[3]
*42 io_analog[4]
*43 io_analog[5]
*44 io_analog[6]
*45 io_analog[7]
*46 io_analog[8]
*47 io_analog[9]
*48 io_clamp_high[0]
*49 io_clamp_high[1]
*50 io_clamp_high[2]
*51 io_clamp_low[0]
*52 io_clamp_low[1]
*53 io_clamp_low[2]
*54 io_in[0]
*55 io_in[10]
*56 io_in[11]
*57 io_in[12]
*58 io_in[13]
*59 io_in[14]
*60 io_in[15]
*61 io_in[16]
*62 io_in[17]
*63 io_in[18]
*64 io_in[19]
*65 io_in[1]
*66 io_in[20]
*67 io_in[21]
*68 io_in[22]
*69 io_in[23]
*70 io_in[24]
*71 io_in[25]
*72 io_in[26]
*73 io_in[2]
*74 io_in[3]
*75 io_in[4]
*76 io_in[5]
*77 io_in[6]
*78 io_in[7]
*79 io_in[8]
*80 io_in[9]
*81 io_in_3v3[0]
*82 io_in_3v3[10]
*83 io_in_3v3[11]
*84 io_in_3v3[12]
*85 io_in_3v3[13]
*86 io_in_3v3[14]
*87 io_in_3v3[15]
*88 io_in_3v3[16]
*89 io_in_3v3[17]
*90 io_in_3v3[18]
*91 io_in_3v3[19]
*92 io_in_3v3[1]
*93 io_in_3v3[20]
*94 io_in_3v3[21]
*95 io_in_3v3[22]
*96 io_in_3v3[23]
*97 io_in_3v3[24]
*98 io_in_3v3[25]
*99 io_in_3v3[26]
*100 io_in_3v3[2]
*101 io_in_3v3[3]
*102 io_in_3v3[4]
*103 io_in_3v3[5]
*104 io_in_3v3[6]
*105 io_in_3v3[7]
*106 io_in_3v3[8]
*107 io_in_3v3[9]
*108 io_oeb[0]
*109 io_oeb[10]
*110 io_oeb[11]
*111 io_oeb[12]
*112 io_oeb[13]
*113 io_oeb[14]
*114 io_oeb[15]
*115 io_oeb[16]
*116 io_oeb[17]
*117 io_oeb[18]
*118 io_oeb[19]
*119 io_oeb[1]
*120 io_oeb[20]
*121 io_oeb[21]
*122 io_oeb[22]
*123 io_oeb[23]
*124 io_oeb[24]
*125 io_oeb[25]
*126 io_oeb[26]
*127 io_oeb[2]
*128 io_oeb[3]
*129 io_oeb[4]
*130 io_oeb[5]
*131 io_oeb[6]
*132 io_oeb[7]
*133 io_oeb[8]
*134 io_oeb[9]
*135 io_out[0]
*136 io_out[10]
*137 io_out[11]
*138 io_out[12]
*139 io_out[13]
*140 io_out[14]
*141 io_out[15]
*142 io_out[16]
*143 io_out[17]
*144 io_out[18]
*145 io_out[19]
*146 io_out[1]
*147 io_out[20]
*148 io_out[21]
*149 io_out[22]
*150 io_out[23]
*151 io_out[24]
*152 io_out[25]
*153 io_out[26]
*154 io_out[2]
*155 io_out[3]
*156 io_out[4]
*157 io_out[5]
*158 io_out[6]
*159 io_out[7]
*160 io_out[8]
*161 io_out[9]
*162 la_data_in[0]
*163 la_data_in[100]
*164 la_data_in[101]
*165 la_data_in[102]
*166 la_data_in[103]
*167 la_data_in[104]
*168 la_data_in[105]
*169 la_data_in[106]
*170 la_data_in[107]
*171 la_data_in[108]
*172 la_data_in[109]
*173 la_data_in[10]
*174 la_data_in[110]
*175 la_data_in[111]
*176 la_data_in[112]
*177 la_data_in[113]
*178 la_data_in[114]
*179 la_data_in[115]
*180 la_data_in[116]
*181 la_data_in[117]
*182 la_data_in[118]
*183 la_data_in[119]
*184 la_data_in[11]
*185 la_data_in[120]
*186 la_data_in[121]
*187 la_data_in[122]
*188 la_data_in[123]
*189 la_data_in[124]
*190 la_data_in[125]
*191 la_data_in[126]
*192 la_data_in[127]
*193 la_data_in[12]
*194 la_data_in[13]
*195 la_data_in[14]
*196 la_data_in[15]
*197 la_data_in[16]
*198 la_data_in[17]
*199 la_data_in[18]
*200 la_data_in[19]
*201 la_data_in[1]
*202 la_data_in[20]
*203 la_data_in[21]
*204 la_data_in[22]
*205 la_data_in[23]
*206 la_data_in[24]
*207 la_data_in[25]
*208 la_data_in[26]
*209 la_data_in[27]
*210 la_data_in[28]
*211 la_data_in[29]
*212 la_data_in[2]
*213 la_data_in[30]
*214 la_data_in[31]
*215 la_data_in[32]
*216 la_data_in[33]
*217 la_data_in[34]
*218 la_data_in[35]
*219 la_data_in[36]
*220 la_data_in[37]
*221 la_data_in[38]
*222 la_data_in[39]
*223 la_data_in[3]
*224 la_data_in[40]
*225 la_data_in[41]
*226 la_data_in[42]
*227 la_data_in[43]
*228 la_data_in[44]
*229 la_data_in[45]
*230 la_data_in[46]
*231 la_data_in[47]
*232 la_data_in[48]
*233 la_data_in[49]
*234 la_data_in[4]
*235 la_data_in[50]
*236 la_data_in[51]
*237 la_data_in[52]
*238 la_data_in[53]
*239 la_data_in[54]
*240 la_data_in[55]
*241 la_data_in[56]
*242 la_data_in[57]
*243 la_data_in[58]
*244 la_data_in[59]
*245 la_data_in[5]
*246 la_data_in[60]
*247 la_data_in[61]
*248 la_data_in[62]
*249 la_data_in[63]
*250 la_data_in[64]
*251 la_data_in[65]
*252 la_data_in[66]
*253 la_data_in[67]
*254 la_data_in[68]
*255 la_data_in[69]
*256 la_data_in[6]
*257 la_data_in[70]
*258 la_data_in[71]
*259 la_data_in[72]
*260 la_data_in[73]
*261 la_data_in[74]
*262 la_data_in[75]
*263 la_data_in[76]
*264 la_data_in[77]
*265 la_data_in[78]
*266 la_data_in[79]
*267 la_data_in[7]
*268 la_data_in[80]
*269 la_data_in[81]
*270 la_data_in[82]
*271 la_data_in[83]
*272 la_data_in[84]
*273 la_data_in[85]
*274 la_data_in[86]
*275 la_data_in[87]
*276 la_data_in[88]
*277 la_data_in[89]
*278 la_data_in[8]
*279 la_data_in[90]
*280 la_data_in[91]
*281 la_data_in[92]
*282 la_data_in[93]
*283 la_data_in[94]
*284 la_data_in[95]
*285 la_data_in[96]
*286 la_data_in[97]
*287 la_data_in[98]
*288 la_data_in[99]
*289 la_data_in[9]
*290 la_data_out[0]
*291 la_data_out[100]
*292 la_data_out[101]
*293 la_data_out[102]
*294 la_data_out[103]
*295 la_data_out[104]
*296 la_data_out[105]
*297 la_data_out[106]
*298 la_data_out[107]
*299 la_data_out[108]
*300 la_data_out[109]
*301 la_data_out[10]
*302 la_data_out[110]
*303 la_data_out[111]
*304 la_data_out[112]
*305 la_data_out[113]
*306 la_data_out[114]
*307 la_data_out[115]
*308 la_data_out[116]
*309 la_data_out[117]
*310 la_data_out[118]
*311 la_data_out[119]
*312 la_data_out[11]
*313 la_data_out[120]
*314 la_data_out[121]
*315 la_data_out[122]
*316 la_data_out[123]
*317 la_data_out[124]
*318 la_data_out[125]
*319 la_data_out[126]
*320 la_data_out[127]
*321 la_data_out[12]
*322 la_data_out[13]
*323 la_data_out[14]
*324 la_data_out[15]
*325 la_data_out[16]
*326 la_data_out[17]
*327 la_data_out[18]
*328 la_data_out[19]
*329 la_data_out[1]
*330 la_data_out[20]
*331 la_data_out[21]
*332 la_data_out[22]
*333 la_data_out[23]
*334 la_data_out[24]
*335 la_data_out[25]
*336 la_data_out[26]
*337 la_data_out[27]
*338 la_data_out[28]
*339 la_data_out[29]
*340 la_data_out[2]
*341 la_data_out[30]
*342 la_data_out[31]
*343 la_data_out[32]
*344 la_data_out[33]
*345 la_data_out[34]
*346 la_data_out[35]
*347 la_data_out[36]
*348 la_data_out[37]
*349 la_data_out[38]
*350 la_data_out[39]
*351 la_data_out[3]
*352 la_data_out[40]
*353 la_data_out[41]
*354 la_data_out[42]
*355 la_data_out[43]
*356 la_data_out[44]
*357 la_data_out[45]
*358 la_data_out[46]
*359 la_data_out[47]
*360 la_data_out[48]
*361 la_data_out[49]
*362 la_data_out[4]
*363 la_data_out[50]
*364 la_data_out[51]
*365 la_data_out[52]
*366 la_data_out[53]
*367 la_data_out[54]
*368 la_data_out[55]
*369 la_data_out[56]
*370 la_data_out[57]
*371 la_data_out[58]
*372 la_data_out[59]
*373 la_data_out[5]
*374 la_data_out[60]
*375 la_data_out[61]
*376 la_data_out[62]
*377 la_data_out[63]
*378 la_data_out[64]
*379 la_data_out[65]
*380 la_data_out[66]
*381 la_data_out[67]
*382 la_data_out[68]
*383 la_data_out[69]
*384 la_data_out[6]
*385 la_data_out[70]
*386 la_data_out[71]
*387 la_data_out[72]
*388 la_data_out[73]
*389 la_data_out[74]
*390 la_data_out[75]
*391 la_data_out[76]
*392 la_data_out[77]
*393 la_data_out[78]
*394 la_data_out[79]
*395 la_data_out[7]
*396 la_data_out[80]
*397 la_data_out[81]
*398 la_data_out[82]
*399 la_data_out[83]
*400 la_data_out[84]
*401 la_data_out[85]
*402 la_data_out[86]
*403 la_data_out[87]
*404 la_data_out[88]
*405 la_data_out[89]
*406 la_data_out[8]
*407 la_data_out[90]
*408 la_data_out[91]
*409 la_data_out[92]
*410 la_data_out[93]
*411 la_data_out[94]
*412 la_data_out[95]
*413 la_data_out[96]
*414 la_data_out[97]
*415 la_data_out[98]
*416 la_data_out[99]
*417 la_data_out[9]
*418 la_oenb[0]
*419 la_oenb[100]
*420 la_oenb[101]
*421 la_oenb[102]
*422 la_oenb[103]
*423 la_oenb[104]
*424 la_oenb[105]
*425 la_oenb[106]
*426 la_oenb[107]
*427 la_oenb[108]
*428 la_oenb[109]
*429 la_oenb[10]
*430 la_oenb[110]
*431 la_oenb[111]
*432 la_oenb[112]
*433 la_oenb[113]
*434 la_oenb[114]
*435 la_oenb[115]
*436 la_oenb[116]
*437 la_oenb[117]
*438 la_oenb[118]
*439 la_oenb[119]
*440 la_oenb[11]
*441 la_oenb[120]
*442 la_oenb[121]
*443 la_oenb[122]
*444 la_oenb[123]
*445 la_oenb[124]
*446 la_oenb[125]
*447 la_oenb[126]
*448 la_oenb[127]
*449 la_oenb[12]
*450 la_oenb[13]
*451 la_oenb[14]
*452 la_oenb[15]
*453 la_oenb[16]
*454 la_oenb[17]
*455 la_oenb[18]
*456 la_oenb[19]
*457 la_oenb[1]
*458 la_oenb[20]
*459 la_oenb[21]
*460 la_oenb[22]
*461 la_oenb[23]
*462 la_oenb[24]
*463 la_oenb[25]
*464 la_oenb[26]
*465 la_oenb[27]
*466 la_oenb[28]
*467 la_oenb[29]
*468 la_oenb[2]
*469 la_oenb[30]
*470 la_oenb[31]
*471 la_oenb[32]
*472 la_oenb[33]
*473 la_oenb[34]
*474 la_oenb[35]
*475 la_oenb[36]
*476 la_oenb[37]
*477 la_oenb[38]
*478 la_oenb[39]
*479 la_oenb[3]
*480 la_oenb[40]
*481 la_oenb[41]
*482 la_oenb[42]
*483 la_oenb[43]
*484 la_oenb[44]
*485 la_oenb[45]
*486 la_oenb[46]
*487 la_oenb[47]
*488 la_oenb[48]
*489 la_oenb[49]
*490 la_oenb[4]
*491 la_oenb[50]
*492 la_oenb[51]
*493 la_oenb[52]
*494 la_oenb[53]
*495 la_oenb[54]
*496 la_oenb[55]
*497 la_oenb[56]
*498 la_oenb[57]
*499 la_oenb[58]
*500 la_oenb[59]
*501 la_oenb[5]
*502 la_oenb[60]
*503 la_oenb[61]
*504 la_oenb[62]
*505 la_oenb[63]
*506 la_oenb[64]
*507 la_oenb[65]
*508 la_oenb[66]
*509 la_oenb[67]
*510 la_oenb[68]
*511 la_oenb[69]
*512 la_oenb[6]
*513 la_oenb[70]
*514 la_oenb[71]
*515 la_oenb[72]
*516 la_oenb[73]
*517 la_oenb[74]
*518 la_oenb[75]
*519 la_oenb[76]
*520 la_oenb[77]
*521 la_oenb[78]
*522 la_oenb[79]
*523 la_oenb[7]
*524 la_oenb[80]
*525 la_oenb[81]
*526 la_oenb[82]
*527 la_oenb[83]
*528 la_oenb[84]
*529 la_oenb[85]
*530 la_oenb[86]
*531 la_oenb[87]
*532 la_oenb[88]
*533 la_oenb[89]
*534 la_oenb[8]
*535 la_oenb[90]
*536 la_oenb[91]
*537 la_oenb[92]
*538 la_oenb[93]
*539 la_oenb[94]
*540 la_oenb[95]
*541 la_oenb[96]
*542 la_oenb[97]
*543 la_oenb[98]
*544 la_oenb[99]
*545 la_oenb[9]
*546 user_clock2
*547 user_irq[0]
*548 user_irq[1]
*549 user_irq[2]
*558 wb_clk_i
*559 wb_rst_i
*560 wbs_ack_o
*561 wbs_adr_i[0]
*562 wbs_adr_i[10]
*563 wbs_adr_i[11]
*564 wbs_adr_i[12]
*565 wbs_adr_i[13]
*566 wbs_adr_i[14]
*567 wbs_adr_i[15]
*568 wbs_adr_i[16]
*569 wbs_adr_i[17]
*570 wbs_adr_i[18]
*571 wbs_adr_i[19]
*572 wbs_adr_i[1]
*573 wbs_adr_i[20]
*574 wbs_adr_i[21]
*575 wbs_adr_i[22]
*576 wbs_adr_i[23]
*577 wbs_adr_i[24]
*578 wbs_adr_i[25]
*579 wbs_adr_i[26]
*580 wbs_adr_i[27]
*581 wbs_adr_i[28]
*582 wbs_adr_i[29]
*583 wbs_adr_i[2]
*584 wbs_adr_i[30]
*585 wbs_adr_i[31]
*586 wbs_adr_i[3]
*587 wbs_adr_i[4]
*588 wbs_adr_i[5]
*589 wbs_adr_i[6]
*590 wbs_adr_i[7]
*591 wbs_adr_i[8]
*592 wbs_adr_i[9]
*593 wbs_cyc_i
*594 wbs_dat_i[0]
*595 wbs_dat_i[10]
*596 wbs_dat_i[11]
*597 wbs_dat_i[12]
*598 wbs_dat_i[13]
*599 wbs_dat_i[14]
*600 wbs_dat_i[15]
*601 wbs_dat_i[16]
*602 wbs_dat_i[17]
*603 wbs_dat_i[18]
*604 wbs_dat_i[19]
*605 wbs_dat_i[1]
*606 wbs_dat_i[20]
*607 wbs_dat_i[21]
*608 wbs_dat_i[22]
*609 wbs_dat_i[23]
*610 wbs_dat_i[24]
*611 wbs_dat_i[25]
*612 wbs_dat_i[26]
*613 wbs_dat_i[27]
*614 wbs_dat_i[28]
*615 wbs_dat_i[29]
*616 wbs_dat_i[2]
*617 wbs_dat_i[30]
*618 wbs_dat_i[31]
*619 wbs_dat_i[3]
*620 wbs_dat_i[4]
*621 wbs_dat_i[5]
*622 wbs_dat_i[6]
*623 wbs_dat_i[7]
*624 wbs_dat_i[8]
*625 wbs_dat_i[9]
*626 wbs_dat_o[0]
*627 wbs_dat_o[10]
*628 wbs_dat_o[11]
*629 wbs_dat_o[12]
*630 wbs_dat_o[13]
*631 wbs_dat_o[14]
*632 wbs_dat_o[15]
*633 wbs_dat_o[16]
*634 wbs_dat_o[17]
*635 wbs_dat_o[18]
*636 wbs_dat_o[19]
*637 wbs_dat_o[1]
*638 wbs_dat_o[20]
*639 wbs_dat_o[21]
*640 wbs_dat_o[22]
*641 wbs_dat_o[23]
*642 wbs_dat_o[24]
*643 wbs_dat_o[25]
*644 wbs_dat_o[26]
*645 wbs_dat_o[27]
*646 wbs_dat_o[28]
*647 wbs_dat_o[29]
*648 wbs_dat_o[2]
*649 wbs_dat_o[30]
*650 wbs_dat_o[31]
*651 wbs_dat_o[3]
*652 wbs_dat_o[4]
*653 wbs_dat_o[5]
*654 wbs_dat_o[6]
*655 wbs_dat_o[7]
*656 wbs_dat_o[8]
*657 wbs_dat_o[9]
*658 wbs_sel_i[0]
*659 wbs_sel_i[1]
*660 wbs_sel_i[2]
*661 wbs_sel_i[3]
*662 wbs_stb_i
*663 wbs_we_i
*664 signal_generator

*PORTS
gpio_analog[0] I
gpio_analog[10] I
gpio_analog[11] I
gpio_analog[12] I
gpio_analog[13] I
gpio_analog[14] I
gpio_analog[15] I
gpio_analog[16] I
gpio_analog[17] I
gpio_analog[1] I
gpio_analog[2] I
gpio_analog[3] I
gpio_analog[4] I
gpio_analog[5] I
gpio_analog[6] I
gpio_analog[7] I
gpio_analog[8] I
gpio_analog[9] I
gpio_noesd[0] I
gpio_noesd[10] I
gpio_noesd[11] I
gpio_noesd[12] I
gpio_noesd[13] I
gpio_noesd[14] I
gpio_noesd[15] I
gpio_noesd[16] I
gpio_noesd[17] I
gpio_noesd[1] I
gpio_noesd[2] I
gpio_noesd[3] I
gpio_noesd[4] I
gpio_noesd[5] I
gpio_noesd[6] I
gpio_noesd[7] I
gpio_noesd[8] I
gpio_noesd[9] I
io_analog[0] I
io_analog[10] I
io_analog[1] I
io_analog[2] I
io_analog[3] I
io_analog[4] I
io_analog[5] I
io_analog[6] I
io_analog[7] I
io_analog[8] I
io_analog[9] I
io_clamp_high[0] I
io_clamp_high[1] I
io_clamp_high[2] I
io_clamp_low[0] I
io_clamp_low[1] I
io_clamp_low[2] I
io_in[0] I
io_in[10] I
io_in[11] I
io_in[12] I
io_in[13] I
io_in[14] I
io_in[15] I
io_in[16] I
io_in[17] I
io_in[18] I
io_in[19] I
io_in[1] I
io_in[20] I
io_in[21] I
io_in[22] I
io_in[23] I
io_in[24] I
io_in[25] I
io_in[26] I
io_in[2] I
io_in[3] I
io_in[4] I
io_in[5] I
io_in[6] I
io_in[7] I
io_in[8] I
io_in[9] I
io_in_3v3[0] I
io_in_3v3[10] I
io_in_3v3[11] I
io_in_3v3[12] I
io_in_3v3[13] I
io_in_3v3[14] I
io_in_3v3[15] I
io_in_3v3[16] I
io_in_3v3[17] I
io_in_3v3[18] I
io_in_3v3[19] I
io_in_3v3[1] I
io_in_3v3[20] I
io_in_3v3[21] I
io_in_3v3[22] I
io_in_3v3[23] I
io_in_3v3[24] I
io_in_3v3[25] I
io_in_3v3[26] I
io_in_3v3[2] I
io_in_3v3[3] I
io_in_3v3[4] I
io_in_3v3[5] I
io_in_3v3[6] I
io_in_3v3[7] I
io_in_3v3[8] I
io_in_3v3[9] I
io_oeb[0] O
io_oeb[10] O
io_oeb[11] O
io_oeb[12] O
io_oeb[13] O
io_oeb[14] O
io_oeb[15] O
io_oeb[16] O
io_oeb[17] O
io_oeb[18] O
io_oeb[19] O
io_oeb[1] O
io_oeb[20] O
io_oeb[21] O
io_oeb[22] O
io_oeb[23] O
io_oeb[24] O
io_oeb[25] O
io_oeb[26] O
io_oeb[2] O
io_oeb[3] O
io_oeb[4] O
io_oeb[5] O
io_oeb[6] O
io_oeb[7] O
io_oeb[8] O
io_oeb[9] O
io_out[0] O
io_out[10] O
io_out[11] O
io_out[12] O
io_out[13] O
io_out[14] O
io_out[15] O
io_out[16] O
io_out[17] O
io_out[18] O
io_out[19] O
io_out[1] O
io_out[20] O
io_out[21] O
io_out[22] O
io_out[23] O
io_out[24] O
io_out[25] O
io_out[26] O
io_out[2] O
io_out[3] O
io_out[4] O
io_out[5] O
io_out[6] O
io_out[7] O
io_out[8] O
io_out[9] O
la_data_in[0] I
la_data_in[100] I
la_data_in[101] I
la_data_in[102] I
la_data_in[103] I
la_data_in[104] I
la_data_in[105] I
la_data_in[106] I
la_data_in[107] I
la_data_in[108] I
la_data_in[109] I
la_data_in[10] I
la_data_in[110] I
la_data_in[111] I
la_data_in[112] I
la_data_in[113] I
la_data_in[114] I
la_data_in[115] I
la_data_in[116] I
la_data_in[117] I
la_data_in[118] I
la_data_in[119] I
la_data_in[11] I
la_data_in[120] I
la_data_in[121] I
la_data_in[122] I
la_data_in[123] I
la_data_in[124] I
la_data_in[125] I
la_data_in[126] I
la_data_in[127] I
la_data_in[12] I
la_data_in[13] I
la_data_in[14] I
la_data_in[15] I
la_data_in[16] I
la_data_in[17] I
la_data_in[18] I
la_data_in[19] I
la_data_in[1] I
la_data_in[20] I
la_data_in[21] I
la_data_in[22] I
la_data_in[23] I
la_data_in[24] I
la_data_in[25] I
la_data_in[26] I
la_data_in[27] I
la_data_in[28] I
la_data_in[29] I
la_data_in[2] I
la_data_in[30] I
la_data_in[31] I
la_data_in[32] I
la_data_in[33] I
la_data_in[34] I
la_data_in[35] I
la_data_in[36] I
la_data_in[37] I
la_data_in[38] I
la_data_in[39] I
la_data_in[3] I
la_data_in[40] I
la_data_in[41] I
la_data_in[42] I
la_data_in[43] I
la_data_in[44] I
la_data_in[45] I
la_data_in[46] I
la_data_in[47] I
la_data_in[48] I
la_data_in[49] I
la_data_in[4] I
la_data_in[50] I
la_data_in[51] I
la_data_in[52] I
la_data_in[53] I
la_data_in[54] I
la_data_in[55] I
la_data_in[56] I
la_data_in[57] I
la_data_in[58] I
la_data_in[59] I
la_data_in[5] I
la_data_in[60] I
la_data_in[61] I
la_data_in[62] I
la_data_in[63] I
la_data_in[64] I
la_data_in[65] I
la_data_in[66] I
la_data_in[67] I
la_data_in[68] I
la_data_in[69] I
la_data_in[6] I
la_data_in[70] I
la_data_in[71] I
la_data_in[72] I
la_data_in[73] I
la_data_in[74] I
la_data_in[75] I
la_data_in[76] I
la_data_in[77] I
la_data_in[78] I
la_data_in[79] I
la_data_in[7] I
la_data_in[80] I
la_data_in[81] I
la_data_in[82] I
la_data_in[83] I
la_data_in[84] I
la_data_in[85] I
la_data_in[86] I
la_data_in[87] I
la_data_in[88] I
la_data_in[89] I
la_data_in[8] I
la_data_in[90] I
la_data_in[91] I
la_data_in[92] I
la_data_in[93] I
la_data_in[94] I
la_data_in[95] I
la_data_in[96] I
la_data_in[97] I
la_data_in[98] I
la_data_in[99] I
la_data_in[9] I
la_data_out[0] O
la_data_out[100] O
la_data_out[101] O
la_data_out[102] O
la_data_out[103] O
la_data_out[104] O
la_data_out[105] O
la_data_out[106] O
la_data_out[107] O
la_data_out[108] O
la_data_out[109] O
la_data_out[10] O
la_data_out[110] O
la_data_out[111] O
la_data_out[112] O
la_data_out[113] O
la_data_out[114] O
la_data_out[115] O
la_data_out[116] O
la_data_out[117] O
la_data_out[118] O
la_data_out[119] O
la_data_out[11] O
la_data_out[120] O
la_data_out[121] O
la_data_out[122] O
la_data_out[123] O
la_data_out[124] O
la_data_out[125] O
la_data_out[126] O
la_data_out[127] O
la_data_out[12] O
la_data_out[13] O
la_data_out[14] O
la_data_out[15] O
la_data_out[16] O
la_data_out[17] O
la_data_out[18] O
la_data_out[19] O
la_data_out[1] O
la_data_out[20] O
la_data_out[21] O
la_data_out[22] O
la_data_out[23] O
la_data_out[24] O
la_data_out[25] O
la_data_out[26] O
la_data_out[27] O
la_data_out[28] O
la_data_out[29] O
la_data_out[2] O
la_data_out[30] O
la_data_out[31] O
la_data_out[32] O
la_data_out[33] O
la_data_out[34] O
la_data_out[35] O
la_data_out[36] O
la_data_out[37] O
la_data_out[38] O
la_data_out[39] O
la_data_out[3] O
la_data_out[40] O
la_data_out[41] O
la_data_out[42] O
la_data_out[43] O
la_data_out[44] O
la_data_out[45] O
la_data_out[46] O
la_data_out[47] O
la_data_out[48] O
la_data_out[49] O
la_data_out[4] O
la_data_out[50] O
la_data_out[51] O
la_data_out[52] O
la_data_out[53] O
la_data_out[54] O
la_data_out[55] O
la_data_out[56] O
la_data_out[57] O
la_data_out[58] O
la_data_out[59] O
la_data_out[5] O
la_data_out[60] O
la_data_out[61] O
la_data_out[62] O
la_data_out[63] O
la_data_out[64] O
la_data_out[65] O
la_data_out[66] O
la_data_out[67] O
la_data_out[68] O
la_data_out[69] O
la_data_out[6] O
la_data_out[70] O
la_data_out[71] O
la_data_out[72] O
la_data_out[73] O
la_data_out[74] O
la_data_out[75] O
la_data_out[76] O
la_data_out[77] O
la_data_out[78] O
la_data_out[79] O
la_data_out[7] O
la_data_out[80] O
la_data_out[81] O
la_data_out[82] O
la_data_out[83] O
la_data_out[84] O
la_data_out[85] O
la_data_out[86] O
la_data_out[87] O
la_data_out[88] O
la_data_out[89] O
la_data_out[8] O
la_data_out[90] O
la_data_out[91] O
la_data_out[92] O
la_data_out[93] O
la_data_out[94] O
la_data_out[95] O
la_data_out[96] O
la_data_out[97] O
la_data_out[98] O
la_data_out[99] O
la_data_out[9] O
la_oenb[0] I
la_oenb[100] I
la_oenb[101] I
la_oenb[102] I
la_oenb[103] I
la_oenb[104] I
la_oenb[105] I
la_oenb[106] I
la_oenb[107] I
la_oenb[108] I
la_oenb[109] I
la_oenb[10] I
la_oenb[110] I
la_oenb[111] I
la_oenb[112] I
la_oenb[113] I
la_oenb[114] I
la_oenb[115] I
la_oenb[116] I
la_oenb[117] I
la_oenb[118] I
la_oenb[119] I
la_oenb[11] I
la_oenb[120] I
la_oenb[121] I
la_oenb[122] I
la_oenb[123] I
la_oenb[124] I
la_oenb[125] I
la_oenb[126] I
la_oenb[127] I
la_oenb[12] I
la_oenb[13] I
la_oenb[14] I
la_oenb[15] I
la_oenb[16] I
la_oenb[17] I
la_oenb[18] I
la_oenb[19] I
la_oenb[1] I
la_oenb[20] I
la_oenb[21] I
la_oenb[22] I
la_oenb[23] I
la_oenb[24] I
la_oenb[25] I
la_oenb[26] I
la_oenb[27] I
la_oenb[28] I
la_oenb[29] I
la_oenb[2] I
la_oenb[30] I
la_oenb[31] I
la_oenb[32] I
la_oenb[33] I
la_oenb[34] I
la_oenb[35] I
la_oenb[36] I
la_oenb[37] I
la_oenb[38] I
la_oenb[39] I
la_oenb[3] I
la_oenb[40] I
la_oenb[41] I
la_oenb[42] I
la_oenb[43] I
la_oenb[44] I
la_oenb[45] I
la_oenb[46] I
la_oenb[47] I
la_oenb[48] I
la_oenb[49] I
la_oenb[4] I
la_oenb[50] I
la_oenb[51] I
la_oenb[52] I
la_oenb[53] I
la_oenb[54] I
la_oenb[55] I
la_oenb[56] I
la_oenb[57] I
la_oenb[58] I
la_oenb[59] I
la_oenb[5] I
la_oenb[60] I
la_oenb[61] I
la_oenb[62] I
la_oenb[63] I
la_oenb[64] I
la_oenb[65] I
la_oenb[66] I
la_oenb[67] I
la_oenb[68] I
la_oenb[69] I
la_oenb[6] I
la_oenb[70] I
la_oenb[71] I
la_oenb[72] I
la_oenb[73] I
la_oenb[74] I
la_oenb[75] I
la_oenb[76] I
la_oenb[77] I
la_oenb[78] I
la_oenb[79] I
la_oenb[7] I
la_oenb[80] I
la_oenb[81] I
la_oenb[82] I
la_oenb[83] I
la_oenb[84] I
la_oenb[85] I
la_oenb[86] I
la_oenb[87] I
la_oenb[88] I
la_oenb[89] I
la_oenb[8] I
la_oenb[90] I
la_oenb[91] I
la_oenb[92] I
la_oenb[93] I
la_oenb[94] I
la_oenb[95] I
la_oenb[96] I
la_oenb[97] I
la_oenb[98] I
la_oenb[99] I
la_oenb[9] I
user_clock2 I
user_irq[0] O
user_irq[1] O
user_irq[2] O
wb_clk_i I
wb_rst_i I
wbs_ack_o O
wbs_adr_i[0] I
wbs_adr_i[10] I
wbs_adr_i[11] I
wbs_adr_i[12] I
wbs_adr_i[13] I
wbs_adr_i[14] I
wbs_adr_i[15] I
wbs_adr_i[16] I
wbs_adr_i[17] I
wbs_adr_i[18] I
wbs_adr_i[19] I
wbs_adr_i[1] I
wbs_adr_i[20] I
wbs_adr_i[21] I
wbs_adr_i[22] I
wbs_adr_i[23] I
wbs_adr_i[24] I
wbs_adr_i[25] I
wbs_adr_i[26] I
wbs_adr_i[27] I
wbs_adr_i[28] I
wbs_adr_i[29] I
wbs_adr_i[2] I
wbs_adr_i[30] I
wbs_adr_i[31] I
wbs_adr_i[3] I
wbs_adr_i[4] I
wbs_adr_i[5] I
wbs_adr_i[6] I
wbs_adr_i[7] I
wbs_adr_i[8] I
wbs_adr_i[9] I
wbs_cyc_i I
wbs_dat_i[0] I
wbs_dat_i[10] I
wbs_dat_i[11] I
wbs_dat_i[12] I
wbs_dat_i[13] I
wbs_dat_i[14] I
wbs_dat_i[15] I
wbs_dat_i[16] I
wbs_dat_i[17] I
wbs_dat_i[18] I
wbs_dat_i[19] I
wbs_dat_i[1] I
wbs_dat_i[20] I
wbs_dat_i[21] I
wbs_dat_i[22] I
wbs_dat_i[23] I
wbs_dat_i[24] I
wbs_dat_i[25] I
wbs_dat_i[26] I
wbs_dat_i[27] I
wbs_dat_i[28] I
wbs_dat_i[29] I
wbs_dat_i[2] I
wbs_dat_i[30] I
wbs_dat_i[31] I
wbs_dat_i[3] I
wbs_dat_i[4] I
wbs_dat_i[5] I
wbs_dat_i[6] I
wbs_dat_i[7] I
wbs_dat_i[8] I
wbs_dat_i[9] I
wbs_dat_o[0] O
wbs_dat_o[10] O
wbs_dat_o[11] O
wbs_dat_o[12] O
wbs_dat_o[13] O
wbs_dat_o[14] O
wbs_dat_o[15] O
wbs_dat_o[16] O
wbs_dat_o[17] O
wbs_dat_o[18] O
wbs_dat_o[19] O
wbs_dat_o[1] O
wbs_dat_o[20] O
wbs_dat_o[21] O
wbs_dat_o[22] O
wbs_dat_o[23] O
wbs_dat_o[24] O
wbs_dat_o[25] O
wbs_dat_o[26] O
wbs_dat_o[27] O
wbs_dat_o[28] O
wbs_dat_o[29] O
wbs_dat_o[2] O
wbs_dat_o[30] O
wbs_dat_o[31] O
wbs_dat_o[3] O
wbs_dat_o[4] O
wbs_dat_o[5] O
wbs_dat_o[6] O
wbs_dat_o[7] O
wbs_dat_o[8] O
wbs_dat_o[9] O
wbs_sel_i[0] I
wbs_sel_i[1] I
wbs_sel_i[2] I
wbs_sel_i[3] I
wbs_stb_i I
wbs_we_i I

*D_NET *54 0.258056
*CONN
*P io_in[0] I
*I *664:io_in[0] I *D signal_generator
*CAP
1 io_in[0] 0.00203259
2 *664:io_in[0] 0.00706026
3 *54:17 0.126298
4 *54:15 0.12127
5 *664:io_in[0] *74:15 0
6 *664:io_in[0] *129:25 0.000990286
7 *664:io_in[0] *156:9 0.000404767
8 *54:15 *135:13 0
9 *54:17 *65:9 0
10 *54:17 *108:13 0
*RES
1 io_in[0] *54:15 22.4661 
2 *54:15 *54:17 404.316 
3 *54:17 *664:io_in[0] 39.6488 
*END

*D_NET *55 0.410356
*CONN
*P io_in[10] I
*I *664:io_in[10] I *D signal_generator
*CAP
1 io_in[10] 0.000180066
2 *664:io_in[10] 0.048641
3 *55:15 0.048641
4 *55:13 0.0815129
5 *55:11 0.0815129
6 *55:9 0.0748438
7 *55:7 0.0750239
8 *55:7 io_out[10] 0
9 *55:9 io_out[10] 0
10 *55:9 *136:13 0
*RES
1 io_in[10] *55:7 0.713067 
2 *55:7 *55:9 251.302 
3 *55:9 *55:11 8 
4 *55:11 *55:13 283.117 
5 *55:13 *55:15 8 
6 *55:15 *664:io_in[10] 162.316 
*END

*D_NET *56 0.427088
*CONN
*P io_in[11] I
*I *664:io_in[11] I *D signal_generator
*CAP
1 io_in[11] 0.000152721
2 *664:io_in[11] 0.0435737
3 *56:15 0.0435737
4 *56:13 0.091617
5 *56:11 0.091617
6 *56:9 0.0782007
7 *56:7 0.0783534
8 *56:9 *137:13 0
*RES
1 io_in[11] *56:7 0.6328 
2 *56:7 *56:9 267.96 
3 *56:9 *56:11 8 
4 *56:11 *56:13 316.882 
5 *56:13 *56:15 8 
6 *56:15 *664:io_in[11] 145.658 
*END

*D_NET *57 0.540388
*CONN
*P io_in[12] I
*I *664:io_in[12] I *D signal_generator
*CAP
1 io_in[12] 0.000985109
2 *664:io_in[12] 0.120091
3 *57:15 0.120091
4 *57:13 0.052958
5 *57:11 0.0539431
6 *57:11 *138:13 0
7 *57:13 *80:13 0.0401409
8 *57:13 *109:9 0.00114788
9 *57:13 *111:9 0.151031
*RES
1 io_in[12] *57:11 11.2349 
2 *57:11 *57:13 1945.38 
3 *57:13 *57:15 8 
4 *57:15 *664:io_in[12] 411.029 
*END

*D_NET *58 0.488282
*CONN
*P io_in[13] I
*I *664:io_in[13] I *D signal_generator
*CAP
1 io_in[13] 0.000148008
2 *664:io_in[13] 0.045868
3 *58:15 0.045868
4 *58:13 0.123089
5 *58:11 0.123089
6 *58:9 0.0750364
7 *58:7 0.0751844
8 *58:9 *139:13 0
*RES
1 io_in[13] *58:7 0.614133 
2 *58:7 *58:9 257.656 
3 *58:9 *58:11 8 
4 *58:11 *58:13 426.552 
5 *58:13 *58:15 8 
6 *58:15 *664:io_in[13] 155.962 
*END

*D_NET *59 0.254483
*CONN
*P io_in[14] I
*I *664:io_in[14] I *D signal_generator
*CAP
1 io_in[14] 0.00210497
2 *664:io_in[14] 0.00391824
3 *59:13 0.0859062
4 *59:11 0.0840929
5 *59:11 io_out[14] 0
6 *59:13 *63:13 0.0784602
*RES
1 io_in[14] *59:11 14.6771 
2 *59:11 *59:13 346.584 
3 *59:13 *664:io_in[14] 19.8776 
*END

*D_NET *60 0.23697
*CONN
*P io_in[15] I
*I *664:io_in[15] I *D signal_generator
*CAP
1 io_in[15] 0.00454841
2 *664:io_in[15] 0.00132333
3 *60:13 0.0733194
4 *60:11 0.0765445
5 *60:11 io_out[15] 0
6 *60:13 *62:13 0
7 *60:13 *113:9 0
8 *60:13 *117:9 0.0812348
*RES
1 io_in[15] *60:11 22.4853 
2 *60:11 *60:13 314.724 
3 *60:13 *664:io_in[15] 12.1496 
*END

*D_NET *61 0.239333
*CONN
*P io_in[16] I
*I *664:io_in[16] I *D signal_generator
*CAP
1 io_in[16] 0.00343965
2 *664:io_in[16] 0.00239828
3 *61:13 0.0563189
4 *61:11 0.0573603
5 *61:11 io_out[16] 0
6 *61:13 *67:13 0.00106795
7 *61:13 *114:9 0.118748
8 *61:13 *115:9 0
*RES
1 io_in[16] *61:11 18.8547 
2 *61:11 *61:13 282.737 
3 *61:13 *664:io_in[16] 15.756 
*END

*D_NET *62 0.209562
*CONN
*P io_in[17] I
*I *664:io_in[17] I *D signal_generator
*CAP
1 io_in[17] 0.00439641
2 *664:io_in[17] 0.00159179
3 *62:13 0.0513675
4 *62:11 0.0541721
5 *62:11 io_out[17] 0
6 *62:13 *113:9 0.0980342
7 *62:13 *117:9 0
8 *60:13 *62:13 0
*RES
1 io_in[17] *62:11 21.4064 
2 *62:11 *62:13 250.749 
3 *62:13 *664:io_in[17] 13.18 
*END

*D_NET *63 0.220788
*CONN
*P io_in[18] I
*I *664:io_in[18] I *D signal_generator
*CAP
1 io_in[18] 0.00237018
2 *664:io_in[18] 0.00365554
3 *63:13 0.0314699
4 *63:11 0.0301846
5 *63:11 io_out[18] 0
6 *63:13 *118:9 0.0746477
7 *59:13 *63:13 0.0784602
*RES
1 io_in[18] *63:11 14.9459 
2 *63:11 *63:13 218.635 
3 *63:13 *664:io_in[18] 19.7059 
*END

*D_NET *64 0.165579
*CONN
*P io_in[19] I
*I *664:io_in[19] I *D signal_generator
*CAP
1 io_in[19] 0.00509395
2 *664:io_in[19] 0.00116116
3 *64:13 0.0385953
4 *64:11 0.0425281
5 *64:11 io_out[19] 0
6 *64:11 *140:15 0
7 *64:13 *117:9 0.0782007
*RES
1 io_in[19] *64:11 22.8587 
2 *64:11 *64:13 186.902 
3 *64:13 *664:io_in[19] 11.8061 
*END

*D_NET *65 0.25987
*CONN
*P io_in[1] I
*I *664:io_in[1] I *D signal_generator
*CAP
1 io_in[1] 0.000158083
2 *664:io_in[1] 0.0448777
3 *65:15 0.0518707
4 *65:9 0.0848995
5 *65:7 0.0780646
6 *65:7 io_out[1] 0
7 *65:9 io_out[1] 0
8 *65:9 *146:13 0
9 *65:15 *75:15 0
10 *54:17 *65:9 0
*RES
1 io_in[1] *65:7 0.634667 
2 *65:7 *65:9 264.182 
3 *65:9 *65:15 39.1579 
4 *65:15 *664:io_in[1] 149.436 
*END

*D_NET *66 0.137329
*CONN
*P io_in[20] I
*I *664:io_in[20] I *D signal_generator
*CAP
1 io_in[20] 0.00162721
2 *664:io_in[20] 0.00426681
3 *66:15 0.0383031
4 *66:13 0.0356635
5 *66:13 io_out[20] 0
6 *66:15 *116:9 0.0574682
7 *66:15 *148:9 0
*RES
1 io_in[20] *66:13 12.7059 
2 *66:13 *66:15 154.788 
3 *66:15 *664:io_in[20] 22.1101 
*END

*D_NET *67 0.0381287
*CONN
*P io_in[21] I
*I *664:io_in[21] I *D signal_generator
*CAP
1 io_in[21] 0.00366125
2 *664:io_in[21] 0.00241676
3 *67:13 0.0148651
4 *67:11 0.0161096
5 *67:11 io_out[21] 0
6 *67:11 *114:7 7.95147e-06
7 *67:11 *144:15 0
8 *67:13 *115:9 0
9 *61:13 *67:13 0.00106795
*RES
1 io_in[21] *67:11 18.7035 
2 *67:11 *67:13 44.3557 
3 *67:13 *664:io_in[21] 15.9277 
*END

*D_NET *68 0.0194827
*CONN
*P io_in[22] I
*I *664:io_in[22] I *D signal_generator
*CAP
1 io_in[22] 0.00974135
2 *664:io_in[22] 0.00974135
3 *664:io_in[22] io_out[22] 0
4 *664:io_in[22] *120:7 0
*RES
1 io_in[22] *664:io_in[22] 46.9755 
*END

*D_NET *69 0.0288874
*CONN
*P io_in[23] I
*I *664:io_in[23] I *D signal_generator
*CAP
1 io_in[23] 0.010495
2 *664:io_in[23] 0.000657846
3 *69:13 0.0111528
4 *69:13 io_out[23] 0
5 *69:13 *123:11 0.00602266
6 *69:13 *124:9 0.00042352
7 *69:13 *152:7 0.000135584
*RES
1 io_in[23] *69:13 43.8811 
2 *69:13 *664:io_in[23] 10.4323 
*END

*D_NET *70 0.0294804
*CONN
*P io_in[24] I
*I *664:io_in[24] I *D signal_generator
*CAP
1 io_in[24] 0.0102697
2 *664:io_in[24] 0.00439127
3 *70:15 0.0146609
4 *70:15 io_out[24] 0
5 *70:15 *150:11 0
6 *70:15 *153:9 0
7 *70:15 *560:17 0.00015852
*RES
1 io_in[24] *70:15 43.532 
2 *70:15 *664:io_in[24] 22.4536 
*END

*D_NET *71 0.0276015
*CONN
*P io_in[25] I
*I *664:io_in[25] I *D signal_generator
*CAP
1 io_in[25] 0.010044
2 *664:io_in[25] 0.00365525
3 *71:13 0.0136992
4 *71:13 io_out[25] 0
5 *71:13 *561:5 0.000203065
*RES
1 io_in[25] *71:13 42.0872 
2 *71:13 *664:io_in[25] 19.8776 
*END

*D_NET *72 0.036943
*CONN
*P io_in[26] I
*I *664:io_in[26] I *D signal_generator
*CAP
1 io_in[26] 0.0116374
2 *664:io_in[26] 0.000643362
3 *72:17 0.0122807
4 *72:17 io_out[26] 0
5 *72:17 wbs_ack_o 0.000266766
6 *72:17 wbs_dat_o[0] 0.000414728
7 *72:17 *124:9 0.0010661
8 *72:17 *125:9 0.00138448
9 *72:17 *126:11 0.00751815
10 *72:17 *152:9 0.000716665
11 *72:17 *558:11 0
12 *72:17 *559:11 0.000114755
13 *72:17 *572:11 0.000546687
14 *72:17 *593:11 2.05341e-05
15 *72:17 *594:11 0.00016149
16 *72:17 *662:13 0.000171202
*RES
1 io_in[26] *72:17 47.9336 
2 *72:17 *664:io_in[26] 10.4323 
*END

*D_NET *73 0.262813
*CONN
*P io_in[2] I
*I *664:io_in[2] I *D signal_generator
*CAP
1 io_in[2] 0.000167409
2 *664:io_in[2] 0.0436026
3 *73:15 0.0512987
4 *73:9 0.0876364
5 *73:7 0.0801077
6 *73:7 io_out[2] 0
7 *73:9 io_out[2] 0
8 *73:9 *154:13 0
*RES
1 io_in[2] *73:7 0.664533 
2 *73:7 *73:9 267.96 
3 *73:9 *73:15 42.3312 
4 *73:15 *664:io_in[2] 145.658 
*END

*D_NET *74 0.264892
*CONN
*P io_in[3] I
*I *664:io_in[3] I *D signal_generator
*CAP
1 io_in[3] 0.000175192
2 *664:io_in[3] 0.001985
3 *74:15 0.0106314
4 *74:9 0.129825
5 *74:7 0.121354
6 *664:io_in[3] *76:9 0.000922333
7 *664:io_in[3] *157:13 0
8 *74:7 io_out[3] 0
9 *74:9 io_out[3] 0
10 *74:9 *155:25 0
11 *74:15 *156:9 0
12 *664:io_in[0] *74:15 0
*RES
1 io_in[3] *74:7 0.6944 
2 *74:7 *74:9 405.862 
3 *74:9 *74:15 45.5045 
4 *74:15 *664:io_in[3] 7.756 
*END

*D_NET *75 0.262641
*CONN
*P io_in[4] I
*I *664:io_in[4] I *D signal_generator
*CAP
1 io_in[4] 0.000176908
2 *664:io_in[4] 0.0443903
3 *75:15 0.0537777
4 *75:9 0.0867535
5 *75:7 0.077543
6 *75:9 *156:13 0
7 *65:15 *75:15 0
*RES
1 io_in[4] *75:7 0.724267 
2 *75:7 *75:9 265.384 
3 *75:9 *75:15 48.6779 
4 *75:15 *664:io_in[4] 148.234 
*END

*D_NET *76 0.261127
*CONN
*P io_in[5] I
*I *664:io_in[5] I *D signal_generator
*CAP
1 io_in[5] 0.000163434
2 *664:io_in[5] 0.00432871
3 *76:9 0.126627
4 *76:7 0.122462
5 *664:io_in[5] *128:9 0.000161245
6 *664:io_in[5] *129:21 0.0003777
7 *664:io_in[5] *155:19 0
8 *664:io_in[5] *157:11 0.00608387
9 *76:7 io_out[5] 0
10 *76:9 io_out[5] 0
11 *76:9 *157:13 0
12 *664:io_in[3] *76:9 0.000922333
*RES
1 io_in[5] *76:7 0.6552 
2 *76:7 *76:9 410.67 
3 *76:9 *664:io_in[5] 34.6163 
*END

*D_NET *77 0.261128
*CONN
*P io_in[6] I
*I *664:io_in[6] I *D signal_generator
*CAP
1 io_in[6] 0.00530086
2 *664:io_in[6] 0.122448
3 *77:15 0.127749
4 *77:15 io_oeb[6] 0.00562971
5 *77:15 io_out[6] 0
6 *77:15 *158:13 0
*RES
1 io_in[6] *77:15 37.7019 
2 *77:15 *664:io_in[6] 410.986 
*END

*D_NET *78 0.432045
*CONN
*P io_in[7] I
*I *664:io_in[7] I *D signal_generator
*CAP
1 io_in[7] 0.000969766
2 *664:io_in[7] 0.122647
3 *78:15 0.122647
4 *78:13 0.0180934
5 *78:11 0.0190631
6 *78:11 io_out[7] 0
7 *78:11 *159:13 0
8 *78:13 io_oeb[6] 0.0054395
9 *78:13 *79:13 0.00132483
10 *78:13 *80:13 0.00116452
11 *78:13 *132:9 0.0735409
12 *78:13 *134:9 0.0671552
*RES
1 io_in[7] *78:11 10.9661 
2 *78:11 *78:13 178.778 
3 *78:13 *78:15 8 
4 *78:15 *664:io_in[7] 411.329 
*END

*D_NET *79 0.411784
*CONN
*P io_in[8] I
*I *664:io_in[8] I *D signal_generator
*CAP
1 io_in[8] 0.000898937
2 *664:io_in[8] 0.119949
3 *79:15 0.119949
4 *79:13 0.0338682
5 *79:11 0.0347671
6 *79:11 *160:13 0
7 *79:13 io_oeb[6] 0.000484028
8 *79:13 *109:9 0.0840808
9 *79:13 *134:9 0.0164623
10 *78:13 *79:13 0.00132483
*RES
1 io_in[8] *79:11 10.9624 
2 *79:11 *79:13 1179.82 
3 *79:13 *79:15 8 
4 *79:15 *664:io_in[8] 411.286 
*END

*D_NET *80 0.498215
*CONN
*P io_in[9] I
*I *664:io_in[9] I *D signal_generator
*CAP
1 io_in[9] 0.00106252
2 *664:io_in[9] 0.119834
3 *80:15 0.119834
4 *80:13 0.047547
5 *80:11 0.0486095
6 *80:11 *161:13 0
7 *80:13 *111:9 0.017305
8 *80:13 *134:9 0.102719
9 *57:13 *80:13 0.0401409
10 *78:13 *80:13 0.00116452
*RES
1 io_in[9] *80:11 11.2611 
2 *80:11 *80:13 247.322 
3 *80:13 *80:15 8 
4 *80:15 *664:io_in[9] 410.986 
*END

*D_NET *108 0.269785
*CONN
*P io_oeb[0] O
*I *664:io_oeb[0] O *D signal_generator
*CAP
1 io_oeb[0] 0.000170084
2 *664:io_oeb[0] 0.00398166
3 *108:13 0.121389
4 *108:11 0.1252
5 *108:11 *127:17 0.000499037
6 *108:11 *128:9 0.000129003
7 *108:11 *129:21 0.000157385
8 *108:11 *135:11 0.00848917
9 *108:11 *146:11 0.00816308
10 *108:11 *154:11 0
11 *108:11 *155:19 5.96381e-05
12 *108:11 *155:21 0.00154732
13 *108:13 *135:13 0
14 *54:17 *108:13 0
*RES
1 *664:io_oeb[0] *108:11 41.7245 
2 *108:11 *108:13 410.67 
3 *108:13 io_oeb[0] 0.6832 
*END

*D_NET *109 0.517481
*CONN
*P io_oeb[10] O
*I *664:io_oeb[10] O *D signal_generator
*CAP
1 io_oeb[10] 0.000939445
2 *664:io_oeb[10] 0.120048
3 *109:9 0.027147
4 *109:7 0.0262075
5 *109:5 0.120048
6 io_oeb[10] *136:13 0
7 *109:9 *111:9 0.115808
8 *109:9 *134:9 0.0220538
9 *57:13 *109:9 0.00114788
10 *79:13 *109:9 0.0840808
*RES
1 *664:io_oeb[10] *109:5 411.201 
2 *109:5 *109:7 8 
3 *109:7 *109:9 1554.5 
4 *109:9 io_oeb[10] 11.0819 
*END

*D_NET *110 0.540737
*CONN
*P io_oeb[11] O
*I *664:io_oeb[11] O *D signal_generator
*CAP
1 io_oeb[11] 0.000179569
2 *664:io_oeb[11] 0.00117802
3 *110:13 0.122472
4 *110:11 0.122292
5 *110:9 0.0438204
6 *110:7 0.0449984
7 io_oeb[11] io_out[11] 0
8 io_oeb[11] *137:13 0
9 *110:9 *112:9 0.126654
10 *110:9 *133:9 0.079143
11 *110:9 *160:9 0
12 *110:13 *137:13 0
*RES
1 *664:io_oeb[11] *110:7 12.1496 
2 *110:7 *110:9 314.089 
3 *110:9 *110:11 8 
4 *110:11 *110:13 409.468 
5 *110:13 io_oeb[11] 0.7112 
*END

*D_NET *111 0.590245
*CONN
*P io_oeb[12] O
*I *664:io_oeb[12] O *D signal_generator
*CAP
1 io_oeb[12] 0.000959341
2 *664:io_oeb[12] 0.122885
3 *111:9 0.0301648
4 *111:7 0.0292054
5 *111:5 0.122885
6 io_oeb[12] io_out[12] 0
7 io_oeb[12] *138:13 0
8 *57:13 *111:9 0.151031
9 *80:13 *111:9 0.017305
10 *109:9 *111:9 0.115808
*RES
1 *664:io_oeb[12] *111:5 411.115 
2 *111:5 *111:7 8 
3 *111:7 *111:9 1929.89 
4 *111:9 io_oeb[12] 11.1341 
*END

*D_NET *112 0.557685
*CONN
*P io_oeb[13] O
*I *664:io_oeb[13] O *D signal_generator
*CAP
1 io_oeb[13] 0.000173968
2 *664:io_oeb[13] 0.00116961
3 *112:13 0.121054
4 *112:11 0.12088
5 *112:9 0.0932921
6 *112:7 0.0944617
7 io_oeb[13] io_out[13] 0
8 io_oeb[13] *139:13 0
9 *112:9 *137:9 0
10 *112:9 *139:9 0
11 *112:9 *160:9 0
12 *112:13 *139:13 0
13 *110:9 *112:9 0.126654
*RES
1 *664:io_oeb[13] *112:7 11.9779 
2 *112:7 *112:9 423.759 
3 *112:9 *112:11 8 
4 *112:11 *112:13 409.64 
5 *112:13 io_oeb[13] 0.692533 
*END

*D_NET *113 0.266427
*CONN
*P io_oeb[14] O
*I *664:io_oeb[14] O *D signal_generator
*CAP
1 io_oeb[14] 0.00418321
2 *664:io_oeb[14] 0.00170922
3 *113:9 0.0824872
4 *113:7 0.0800132
5 io_oeb[14] io_out[14] 0
6 *60:13 *113:9 0
7 *62:13 *113:9 0.0980342
*RES
1 *664:io_oeb[14] *113:7 13.3517 
2 *113:7 *113:9 350.011 
3 *113:9 io_oeb[14] 21.2291 
*END

*D_NET *114 0.259514
*CONN
*P io_oeb[15] O
*I *664:io_oeb[15] O *D signal_generator
*CAP
1 io_oeb[15] 0.00339663
2 *664:io_oeb[15] 0.00247624
3 *114:9 0.067903
4 *114:7 0.0669826
5 io_oeb[15] io_out[15] 0
6 *114:9 *115:9 0
7 *61:13 *114:9 0.118748
8 *67:11 *114:7 7.95147e-06
*RES
1 *664:io_oeb[15] *114:7 15.9277 
2 *114:7 *114:9 318.024 
3 *114:9 io_oeb[15] 18.6288 
*END

*D_NET *115 0.195413
*CONN
*P io_oeb[16] O
*I *664:io_oeb[16] O *D signal_generator
*CAP
1 io_oeb[16] 0.00310329
2 *664:io_oeb[16] 0.00288369
3 *115:9 0.0948227
4 *115:7 0.0946031
5 io_oeb[16] io_out[16] 0
6 *61:13 *115:9 0
7 *67:13 *115:9 0
8 *114:9 *115:9 0
*RES
1 *664:io_oeb[16] *115:7 17.3016 
2 *115:7 *115:9 286.164 
3 *115:9 io_oeb[16] 17.3576 
*END

*D_NET *116 0.244153
*CONN
*P io_oeb[17] O
*I *664:io_oeb[17] O *D signal_generator
*CAP
1 io_oeb[17] 0.00161701
2 *664:io_oeb[17] 0.00458108
3 *116:9 0.0391109
4 *116:7 0.042075
5 io_oeb[17] io_out[17] 0
6 *116:9 *141:9 0.0993004
7 *116:9 *147:9 0
8 *116:9 *148:9 0
9 *66:15 *116:9 0.0574682
*RES
1 *664:io_oeb[17] *116:7 22.2819 
2 *116:7 *116:9 253.542 
3 *116:9 io_oeb[17] 13.2603 
*END

*D_NET *117 0.226724
*CONN
*P io_oeb[18] O
*I *664:io_oeb[18] O *D signal_generator
*CAP
1 io_oeb[18] 0.0049864
2 *664:io_oeb[18] 0.00124224
3 *117:9 0.0324022
4 *117:7 0.028658
5 io_oeb[18] io_out[18] 0
6 *60:13 *117:9 0.0812348
7 *62:13 *117:9 0
8 *64:13 *117:9 0.0782007
*RES
1 *664:io_oeb[18] *117:7 11.9779 
2 *117:7 *117:9 222.189 
3 *117:9 io_oeb[18] 22.6328 
*END

*D_NET *118 0.161252
*CONN
*P io_oeb[19] O
*I *664:io_oeb[19] O *D signal_generator
*CAP
1 io_oeb[19] 0.0027053
2 *664:io_oeb[19] 0.00344922
3 *118:9 0.0398532
4 *118:7 0.0405971
5 io_oeb[19] io_out[19] 0
6 *63:13 *118:9 0.0746477
*RES
1 *664:io_oeb[19] *118:7 19.5341 
2 *118:7 *118:9 189.567 
3 *118:9 io_oeb[19] 16.4 
*END

*D_NET *119 0.269037
*CONN
*P io_oeb[1] O
*I *664:io_oeb[1] O *D signal_generator
*CAP
1 io_oeb[1] 0.000180066
2 *664:io_oeb[1] 0.00535757
3 *119:13 0.122955
4 *119:11 0.128133
5 io_oeb[1] io_out[1] 0
6 io_oeb[1] *146:13 0
7 *119:11 *127:15 0.0022899
8 *119:11 *129:21 0.000258006
9 *119:11 *146:11 0.0098631
10 *119:11 *154:11 0
11 *119:13 *146:13 0
*RES
1 *664:io_oeb[1] *119:11 44.5544 
2 *119:11 *119:13 411.014 
3 *119:13 io_oeb[1] 0.713067 
*END

*D_NET *120 0.148548
*CONN
*P io_oeb[20] O
*I *664:io_oeb[20] O *D signal_generator
*CAP
1 io_oeb[20] 0.00101443
2 *664:io_oeb[20] 0.00481725
3 *120:9 0.0189507
4 *120:7 0.0227535
5 io_oeb[20] io_out[20] 0
6 io_oeb[20] *142:15 2.95908e-05
7 *120:7 io_out[22] 0.000119594
8 *120:7 *121:17 0
9 *120:9 *121:17 0.0064373
10 *120:9 *144:17 0.0274615
11 *120:9 *145:17 0.000193173
12 *120:9 *147:9 0.0661646
13 *120:9 *148:9 0.000606105
14 *664:io_in[22] *120:7 0
*RES
1 *664:io_oeb[20] *120:7 23.6557 
2 *120:7 *120:9 158.342 
3 *120:9 io_oeb[20] 10.9288 
*END

*D_NET *121 0.0414378
*CONN
*P io_oeb[21] O
*I *664:io_oeb[21] O *D signal_generator
*CAP
1 io_oeb[21] 0.000825946
2 *664:io_oeb[21] 0.00457754
3 *121:17 0.0106557
4 *121:11 0.0116384
5 *121:7 0.00638624
6 io_oeb[21] io_out[21] 0
7 io_oeb[21] *145:15 1.34341e-05
8 *121:11 io_out[22] 0.000270888
9 *121:11 *148:9 0.000550823
10 *121:17 io_out[22] 4.09166e-05
11 *121:17 *122:13 4.06246e-05
12 *121:17 *148:9 0
13 *120:7 *121:17 0
14 *120:9 *121:17 0.0064373
*RES
1 *664:io_oeb[21] *121:7 23.0117 
2 *121:7 *121:11 48.9936 
3 *121:11 *121:17 49.3821 
4 *121:17 io_oeb[21] 10.4901 
*END

*D_NET *122 0.0223633
*CONN
*P io_oeb[22] O
*I *664:io_oeb[22] O *D signal_generator
*CAP
1 io_oeb[22] 0.000195332
2 *664:io_oeb[22] 0.00825867
3 *122:13 0.008454
4 *122:13 io_out[22] 0.00541465
5 *121:17 *122:13 4.06246e-05
*RES
1 *664:io_oeb[22] *122:13 49.6205 
2 *122:13 io_oeb[22] 1.06213 
*END

*D_NET *123 0.0243661
*CONN
*P io_oeb[23] O
*I *664:io_oeb[23] O *D signal_generator
*CAP
1 io_oeb[23] 0.00516772
2 *664:io_oeb[23] 0.0038693
3 *123:11 0.00903701
4 io_oeb[23] io_out[23] 0
5 io_oeb[23] *125:7 4.03335e-05
6 *123:11 *124:9 0.000125896
7 *123:11 *152:9 0.000103193
8 *69:13 *123:11 0.00602266
*RES
1 *664:io_oeb[23] *123:11 34.564 
2 *123:11 io_oeb[23] 16.3707 
*END

*D_NET *124 0.0385893
*CONN
*P io_oeb[24] O
*I *664:io_oeb[24] O *D signal_generator
*CAP
1 io_oeb[24] 0.00479659
2 *664:io_oeb[24] 0.00075193
3 *124:9 0.00757062
4 *124:7 0.00352596
5 io_oeb[24] io_out[24] 0
6 io_oeb[24] *559:19 0.000889745
7 *124:9 *125:9 0.00852053
8 *124:9 *151:9 0.00119065
9 *124:9 *152:9 0.00972778
10 *69:13 *124:9 0.00042352
11 *72:17 *124:9 0.0010661
12 *123:11 *124:9 0.000125896
*RES
1 *664:io_oeb[24] *124:7 10.5611 
2 *124:7 *124:9 155.088 
3 *124:9 io_oeb[24] 24.0085 
*END

*D_NET *125 0.029994
*CONN
*P io_oeb[25] O
*I *664:io_oeb[25] O *D signal_generator
*CAP
1 io_oeb[25] 0.00512285
2 *664:io_oeb[25] 0.000639933
3 *125:9 0.00901333
4 *125:7 0.00453041
5 io_oeb[25] io_out[25] 0
6 *125:9 *152:9 0.00074215
7 *125:9 *583:5 0
8 *125:9 *616:5 0
9 io_oeb[23] *125:7 4.03335e-05
10 *72:17 *125:9 0.00138448
11 *124:9 *125:9 0.00852053
*RES
1 *664:io_oeb[25] *125:7 10.4752 
2 *125:7 *125:9 132.551 
3 *125:9 io_oeb[25] 24.1915 
*END

*D_NET *126 0.0289876
*CONN
*P io_oeb[26] O
*I *664:io_oeb[26] O *D signal_generator
*CAP
1 io_oeb[26] 0.00529652
2 *664:io_oeb[26] 0.00531244
3 *126:11 0.010609
4 io_oeb[26] io_out[26] 0
5 io_oeb[26] *637:21 0
6 io_oeb[26] *658:13 0
7 *126:11 *616:5 0.000251547
8 *72:17 *126:11 0.00751815
*RES
1 *664:io_oeb[26] *126:11 38.2451 
2 *126:11 io_oeb[26] 16.3763 
*END

*D_NET *127 0.267077
*CONN
*P io_oeb[2] O
*I *664:io_oeb[2] O *D signal_generator
*CAP
1 io_oeb[2] 0.000150669
2 *664:io_oeb[2] 0.00406791
3 *127:21 0.121387
4 *127:19 0.121236
5 *127:17 0.00154185
6 *127:15 0.00560976
7 io_oeb[2] io_out[2] 0
8 io_oeb[2] *154:13 0
9 *127:15 *135:11 6.66248e-05
10 *127:15 *154:11 0
11 *127:15 *155:19 0.00348203
12 *127:17 *128:9 0.00101114
13 *127:17 *129:21 0.00139266
14 *127:17 *135:11 0.000515784
15 *127:17 *155:21 0.00382669
16 *127:21 *154:13 0
17 *108:11 *127:17 0.000499037
18 *119:11 *127:15 0.0022899
*RES
1 *664:io_oeb[2] *127:15 44.4101 
2 *127:15 *127:17 67.0521 
3 *127:17 *127:19 8 
4 *127:19 *127:21 410.456 
5 *127:21 io_oeb[2] 0.616 
*END

*D_NET *128 0.269469
*CONN
*P io_oeb[3] O
*I *664:io_oeb[3] O *D signal_generator
*CAP
1 io_oeb[3] 0.000158812
2 *664:io_oeb[3] 0.000923304
3 *128:13 0.121371
4 *128:11 0.121212
5 *128:9 0.00506242
6 *128:7 0.00598572
7 *128:7 *129:19 0.000622012
8 *128:9 *129:21 0.0121332
9 *128:9 *135:11 0.000448086
10 *128:9 *146:11 0.000251547
11 *128:13 *155:25 0
12 *664:io_in[5] *128:9 0.000161245
13 *108:11 *128:9 0.000129003
14 *127:17 *128:9 0.00101114
*RES
1 *664:io_oeb[3] *128:7 11.3339 
2 *128:7 *128:9 179.738 
3 *128:9 *128:11 8 
4 *128:11 *128:13 410.284 
5 *128:13 io_oeb[3] 0.645867 
*END

*D_NET *129 0.276621
*CONN
*P io_oeb[4] O
*I *664:io_oeb[4] O *D signal_generator
*CAP
1 io_oeb[4] 0.000170327
2 *664:io_oeb[4] 0.0032346
3 *129:25 0.122533
4 *129:23 0.122363
5 *129:21 0.00382476
6 *129:19 0.00705937
7 io_oeb[4] io_out[4] 0
8 io_oeb[4] *156:13 0
9 *129:19 *130:11 0.00035784
10 *129:21 *135:11 0.000198873
11 *129:21 *146:11 0.000378748
12 *129:21 *155:21 0.000568454
13 *129:25 *156:13 0
14 *664:io_in[0] *129:25 0.000990286
15 *664:io_in[5] *129:21 0.0003777
16 *108:11 *129:21 0.000157385
17 *119:11 *129:21 0.000258006
18 *127:17 *129:21 0.00139266
19 *128:7 *129:19 0.000622012
20 *128:9 *129:21 0.0121332
*RES
1 *664:io_oeb[4] *129:19 35.2149 
2 *129:19 *129:21 154.384 
3 *129:21 *129:23 8 
4 *129:23 *129:25 410.37 
5 *129:25 io_oeb[4] 0.675733 
*END

*D_NET *130 0.259111
*CONN
*P io_oeb[5] O
*I *664:io_oeb[5] O *D signal_generator
*CAP
1 io_oeb[5] 0.000148312
2 *664:io_oeb[5] 0.00443368
3 *130:13 0.12156
4 *130:11 0.125846
5 io_oeb[5] io_out[5] 0
6 io_oeb[5] *157:13 0
7 *130:11 *155:19 1.85537e-05
8 *130:11 *157:11 0.00674674
9 *130:13 *157:13 0
10 *129:19 *130:11 0.00035784
*RES
1 *664:io_oeb[5] *130:11 37.1923 
2 *130:11 *130:13 411.014 
3 *130:13 io_oeb[5] 0.606667 
*END

*D_NET *131 0.257995
*CONN
*P io_oeb[6] O
*I *664:io_oeb[6] O *D signal_generator
*CAP
1 io_oeb[6] 0.00338144
2 *664:io_oeb[6] 0.119839
3 *131:5 0.123221
4 io_oeb[6] *158:13 0
5 *77:15 io_oeb[6] 0.00562971
6 *78:13 io_oeb[6] 0.0054395
7 *79:13 io_oeb[6] 0.000484028
*RES
1 *664:io_oeb[6] *131:5 411.158 
2 *131:5 io_oeb[6] 34.6405 
*END

*D_NET *132 0.384311
*CONN
*P io_oeb[7] O
*I *664:io_oeb[7] O *D signal_generator
*CAP
1 io_oeb[7] 0.000840642
2 *664:io_oeb[7] 0.12005
3 *132:9 0.0350927
4 *132:7 0.0342521
5 *132:5 0.12005
6 io_oeb[7] *159:13 0
7 *132:9 *134:9 0.000484293
8 *78:13 *132:9 0.0735409
*RES
1 *664:io_oeb[7] *132:5 411.501 
2 *132:5 *132:7 8 
3 *132:7 *132:9 175.986 
4 *132:9 io_oeb[7] 10.604 
*END

*D_NET *133 0.412347
*CONN
*P io_oeb[8] O
*I *664:io_oeb[8] O *D signal_generator
*CAP
1 io_oeb[8] 0.000161002
2 *664:io_oeb[8] 0.00118042
3 *133:13 0.122637
4 *133:11 0.122476
5 *133:9 0.0427845
6 *133:7 0.0439649
7 io_oeb[8] io_out[8] 0
8 io_oeb[8] *160:13 0
9 *133:7 *158:13 0
10 *133:9 *160:9 0
11 *133:13 *160:13 0
12 *110:9 *133:9 0.079143
*RES
1 *664:io_oeb[8] *133:7 12.3213 
2 *133:7 *133:9 209.877 
3 *133:9 *133:11 8 
4 *133:11 *133:13 409.297 
5 *133:13 io_oeb[8] 0.645867 
*END

*D_NET *134 0.519979
*CONN
*P io_oeb[9] O
*I *664:io_oeb[9] O *D signal_generator
*CAP
1 io_oeb[9] 0.000965759
2 *664:io_oeb[9] 0.122675
3 *134:9 0.0328777
4 *134:7 0.0319119
5 *134:5 0.122675
6 io_oeb[9] *161:13 0
7 *78:13 *134:9 0.0671552
8 *79:13 *134:9 0.0164623
9 *80:13 *134:9 0.102719
10 *109:9 *134:9 0.0220538
11 *132:9 *134:9 0.000484293
*RES
1 *664:io_oeb[9] *134:5 411.158 
2 *134:5 *134:7 8 
3 *134:7 *134:9 244.403 
4 *134:9 io_oeb[9] 11.0781 
*END

*D_NET *135 0.260354
*CONN
*P io_out[0] O
*I *664:io_out[0] O *D signal_generator
*CAP
1 io_out[0] 0.000155549
2 *664:io_out[0] 0.00538336
3 *135:13 0.119934
4 *135:11 0.125162
5 *135:11 *154:11 0
6 *54:15 *135:13 0
7 *108:11 *135:11 0.00848917
8 *108:13 *135:13 0
9 *127:15 *135:11 6.66248e-05
10 *127:17 *135:11 0.000515784
11 *128:9 *135:11 0.000448086
12 *129:21 *135:11 0.000198873
*RES
1 *664:io_out[0] *135:11 40.5 
2 *135:11 *135:13 410.499 
3 *135:13 io_out[0] 0.644 
*END

*D_NET *136 0.414193
*CONN
*P io_out[10] O
*I *664:io_out[10] O *D signal_generator
*CAP
1 io_out[10] 0.000153025
2 *664:io_out[10] 0.00194979
3 *136:13 0.119884
4 *136:11 0.119731
5 *136:9 0.0852624
6 *136:7 0.0872122
7 *136:9 *138:9 0
8 io_oeb[10] *136:13 0
9 *55:7 io_out[10] 0
10 *55:9 io_out[10] 0
11 *55:9 *136:13 0
*RES
1 *664:io_out[10] *136:7 14.5539 
2 *136:7 *136:9 281.594 
3 *136:9 *136:11 8 
4 *136:11 *136:13 407.064 
5 *136:13 io_out[10] 0.625333 
*END

*D_NET *137 0.540554
*CONN
*P io_out[11] O
*I *664:io_out[11] O *D signal_generator
*CAP
1 io_out[11] 0.000167165
2 *664:io_out[11] 0.000747385
3 *137:13 0.122018
4 *137:11 0.121851
5 *137:9 0.0440598
6 *137:7 0.0448072
7 *137:9 *139:9 0.127222
8 *137:9 *160:9 0.0796811
9 io_oeb[11] io_out[11] 0
10 io_oeb[11] *137:13 0
11 *56:9 *137:13 0
12 *110:13 *137:13 0
13 *112:9 *137:9 0
*RES
1 *664:io_out[11] *137:7 10.7757 
2 *137:7 *137:9 315.485 
3 *137:9 *137:11 8 
4 *137:11 *137:13 410.842 
5 *137:13 io_out[11] 0.672 
*END

*D_NET *138 0.449359
*CONN
*P io_out[12] O
*I *664:io_out[12] O *D signal_generator
*CAP
1 io_out[12] 0.000179379
2 *664:io_out[12] 0.00237201
3 *138:13 0.121337
4 *138:11 0.121158
5 *138:9 0.100971
6 *138:7 0.103343
7 io_oeb[12] io_out[12] 0
8 io_oeb[12] *138:13 0
9 *57:11 *138:13 0
10 *136:9 *138:9 0
*RES
1 *664:io_out[12] *138:7 15.756 
2 *138:7 *138:9 349.377 
3 *138:9 *138:11 8 
4 *138:11 *138:13 405.862 
5 *138:13 io_out[12] 0.718667 
*END

*D_NET *139 0.559645
*CONN
*P io_out[13] O
*I *664:io_out[13] O *D signal_generator
*CAP
1 io_out[13] 0.000160758
2 *664:io_out[13] 0.000682563
3 *139:13 0.121948
4 *139:11 0.121787
5 *139:9 0.0935813
6 *139:7 0.0942639
7 io_oeb[13] io_out[13] 0
8 io_oeb[13] *139:13 0
9 *58:9 *139:13 0
10 *112:9 *139:9 0
11 *112:13 *139:13 0
12 *137:9 *139:9 0.127222
*RES
1 *664:io_out[13] *139:7 10.604 
2 *139:7 *139:9 425.156 
3 *139:9 *139:11 8 
4 *139:11 *139:13 411.014 
5 *139:13 io_out[13] 0.653333 
*END

*D_NET *140 0.270433
*CONN
*P io_out[14] O
*I *664:io_out[14] O *D signal_generator
*CAP
1 io_out[14] 0.00101511
2 *664:io_out[14] 0.00492199
3 *140:17 0.0412115
4 *140:15 0.04045
5 *140:9 0.0260793
6 *140:7 0.0307476
7 *140:9 *142:9 0.000284159
8 *140:9 *143:9 0.0456864
9 *140:9 *143:17 0.00504192
10 *140:9 *147:9 0.00530383
11 *140:17 *141:9 0
12 *140:17 *142:17 0.0510002
13 *140:17 *143:17 0.0186909
14 io_oeb[14] io_out[14] 0
15 *59:11 io_out[14] 0
16 *64:11 *140:15 0
*RES
1 *664:io_out[14] *140:7 23.0117 
2 *140:7 *140:9 815.004 
3 *140:9 *140:15 16.7 
4 *140:15 *140:17 201.118 
5 *140:17 io_out[14] 11.248 
*END

*D_NET *141 0.248365
*CONN
*P io_out[15] O
*I *664:io_out[15] O *D signal_generator
*CAP
1 io_out[15] 0.0013498
2 *664:io_out[15] 0.0047711
3 *141:9 0.0697613
4 *141:7 0.0731826
5 *141:9 *143:17 0
6 *141:9 *147:9 0
7 io_oeb[15] io_out[15] 0
8 *60:11 io_out[15] 0
9 *116:9 *141:9 0.0993004
10 *140:17 *141:9 0
*RES
1 *664:io_out[15] *141:7 22.4536 
2 *141:7 *141:9 316.12 
3 *141:9 io_out[15] 12.3475 
*END

*D_NET *142 0.259269
*CONN
*P io_out[16] O
*I *664:io_out[16] O *D signal_generator
*CAP
1 io_out[16] 0.000994899
2 *664:io_out[16] 0.0049298
3 *142:17 0.0253678
4 *142:15 0.0246369
5 *142:9 0.0184111
6 *142:7 0.0230769
7 *142:9 *143:9 0.0529998
8 *142:9 *144:9 0.00183145
9 *142:9 *147:9 0.0143692
10 *142:9 *148:9 0.000231929
11 *142:15 io_out[20] 3.22557e-05
12 *142:15 *143:15 0
13 *142:17 *143:17 0.00654028
14 *142:17 *144:17 0.0343958
15 *142:17 *147:9 0.000136915
16 io_oeb[16] io_out[16] 0
17 io_oeb[20] *142:15 2.95908e-05
18 *61:11 io_out[16] 0
19 *140:9 *142:9 0.000284159
20 *140:17 *142:17 0.0510002
*RES
1 *664:io_out[16] *142:7 23.1835 
2 *142:7 *142:9 679.781 
3 *142:9 *142:15 16.7 
4 *142:15 *142:17 161.515 
5 *142:17 io_out[16] 11.1248 
*END

*D_NET *143 0.22687
*CONN
*P io_out[17] O
*I *664:io_out[17] O *D signal_generator
*CAP
1 io_out[17] 0.00110674
2 *664:io_out[17] 0.00483231
3 *143:17 0.0273859
4 *143:15 0.026404
5 *143:9 0.00951247
6 *143:7 0.0142199
7 *143:9 *144:9 0.00192462
8 *143:9 *145:9 0.00499723
9 *143:9 *147:9 0.00599218
10 *143:9 *148:9 0.000762392
11 *143:17 *147:9 0.000773178
12 io_oeb[17] io_out[17] 0
13 *62:11 io_out[17] 0
14 *140:9 *143:9 0.0456864
15 *140:9 *143:17 0.00504192
16 *140:17 *143:17 0.0186909
17 *141:9 *143:17 0
18 *142:9 *143:9 0.0529998
19 *142:15 *143:15 0
20 *142:17 *143:17 0.00654028
*RES
1 *664:io_out[17] *143:7 23.0976 
2 *143:7 *143:9 719.221 
3 *143:9 *143:15 16.2707 
4 *143:15 *143:17 122.801 
5 *143:17 io_out[17] 11.2349 
*END

*D_NET *144 0.207092
*CONN
*P io_out[18] O
*I *664:io_out[18] O *D signal_generator
*CAP
1 io_out[18] 0.000887405
2 *664:io_out[18] 0.004718
3 *144:17 0.0258124
4 *144:15 0.0251588
5 *144:9 0.00372872
6 *144:7 0.00821294
7 *144:9 *145:9 0.00134725
8 *144:9 *148:9 0.00358501
9 *144:15 io_out[21] 0.000384399
10 *144:17 *145:17 0.0675648
11 *144:17 *147:9 7.91684e-05
12 io_oeb[18] io_out[18] 0
13 *63:11 io_out[18] 0
14 *67:11 *144:15 0
15 *120:9 *144:17 0.0274615
16 *142:9 *144:9 0.00183145
17 *142:17 *144:17 0.0343958
18 *143:9 *144:9 0.00192462
*RES
1 *664:io_out[18] *144:7 23.2693 
2 *144:7 *144:9 116.352 
3 *144:9 *144:15 16.7859 
4 *144:15 *144:17 199.341 
5 *144:17 io_out[18] 10.7477 
*END

*D_NET *145 0.166291
*CONN
*P io_out[19] O
*I *664:io_out[19] O *D signal_generator
*CAP
1 io_out[19] 0.000811358
2 *664:io_out[19] 0.00465013
3 *145:17 0.0345992
4 *145:15 0.0342872
5 *145:9 0.00572477
6 *145:7 0.0098755
7 *145:9 *148:9 0.00222693
8 *145:15 io_out[21] 0
9 io_oeb[19] io_out[19] 0
10 io_oeb[21] *145:15 1.34341e-05
11 *64:11 io_out[19] 0
12 *120:9 *145:17 0.000193173
13 *143:9 *145:9 0.00499723
14 *144:9 *145:9 0.00134725
15 *144:17 *145:17 0.0675648
*RES
1 *664:io_out[19] *145:7 23.0117 
2 *145:7 *145:9 156.496 
3 *145:9 *145:15 17.2152 
4 *145:15 *145:17 160.246 
5 *145:17 io_out[19] 10.4173 
*END

*D_NET *146 0.272277
*CONN
*P io_out[1] O
*I *664:io_out[1] O *D signal_generator
*CAP
1 io_out[1] 0.000169841
2 *664:io_out[1] 0.00394648
3 *146:13 0.122864
4 *146:11 0.126641
5 *146:11 *154:11 0
6 io_oeb[1] io_out[1] 0
7 io_oeb[1] *146:13 0
8 *65:7 io_out[1] 0
9 *65:9 io_out[1] 0
10 *65:9 *146:13 0
11 *108:11 *146:11 0.00816308
12 *119:11 *146:11 0.0098631
13 *119:13 *146:13 0
14 *128:9 *146:11 0.000251547
15 *129:21 *146:11 0.000378748
*RES
1 *664:io_out[1] *146:11 43.3299 
2 *146:11 *146:13 410.842 
3 *146:13 io_out[1] 0.673867 
*END

*D_NET *147 0.17212
*CONN
*P io_out[20] O
*I *664:io_out[20] O *D signal_generator
*CAP
1 io_out[20] 0.00111194
2 *664:io_out[20] 0.00474905
3 *147:9 0.0268274
4 *147:7 0.0304645
5 *147:9 *148:9 0.0161154
6 io_oeb[20] io_out[20] 0
7 *66:13 io_out[20] 0
8 *116:9 *147:9 0
9 *120:9 *147:9 0.0661646
10 *140:9 *147:9 0.00530383
11 *141:9 *147:9 0
12 *142:9 *147:9 0.0143692
13 *142:15 io_out[20] 3.22557e-05
14 *142:17 *147:9 0.000136915
15 *143:9 *147:9 0.00599218
16 *143:17 *147:9 0.000773178
17 *144:17 *147:9 7.91684e-05
*RES
1 *664:io_out[20] *147:7 23.484 
2 *147:7 *147:9 156.565 
3 *147:9 io_out[20] 11.2443 
*END

*D_NET *148 0.0557237
*CONN
*P io_out[21] O
*I *664:io_out[21] O *D signal_generator
*CAP
1 io_out[21] 0.0010701
2 *664:io_out[21] 0.00468242
3 *148:9 0.00977596
4 *148:7 0.0133883
5 *148:9 io_out[22] 0.00234395
6 io_oeb[21] io_out[21] 0
7 *66:15 *148:9 0
8 *67:11 io_out[21] 0
9 *116:9 *148:9 0
10 *120:9 *148:9 0.000606105
11 *121:11 *148:9 0.000550823
12 *121:17 *148:9 0
13 *142:9 *148:9 0.000231929
14 *143:9 *148:9 0.000762392
15 *144:9 *148:9 0.00358501
16 *144:15 io_out[21] 0.000384399
17 *145:9 *148:9 0.00222693
18 *145:15 io_out[21] 0
19 *147:9 *148:9 0.0161154
*RES
1 *664:io_out[21] *148:7 23.3123 
2 *148:7 *148:9 46.0059 
3 *148:9 io_out[21] 11.2797 
*END

*D_NET *149 0.023502
*CONN
*P io_out[22] O
*I *664:io_out[22] O *D signal_generator
*CAP
1 io_out[22] 0.00765602
2 *664:io_out[22] 0.00765602
3 *664:io_in[22] io_out[22] 0
4 *120:7 io_out[22] 0.000119594
5 *121:11 io_out[22] 0.000270888
6 *121:17 io_out[22] 4.09166e-05
7 *122:13 io_out[22] 0.00541465
8 *148:9 io_out[22] 0.00234395
*RES
1 *664:io_out[22] io_out[22] 48.6984 
*END

*D_NET *150 0.0217971
*CONN
*P io_out[23] O
*I *664:io_out[23] O *D signal_generator
*CAP
1 io_out[23] 0.000916989
2 *664:io_out[23] 0.00998158
3 *150:11 0.0108986
4 io_oeb[23] io_out[23] 0
5 *69:13 io_out[23] 0
6 *70:15 *150:11 0
*RES
1 *664:io_out[23] *150:11 49.7363 
2 *150:11 io_out[23] 2.77573 
*END

*D_NET *151 0.0338762
*CONN
*P io_out[24] O
*I *664:io_out[24] O *D signal_generator
*CAP
1 io_out[24] 0.00466221
2 *664:io_out[24] 0.00081063
3 *151:9 0.00948406
4 *151:7 0.00563248
5 io_out[24] *561:11 0.000852144
6 *151:9 *152:9 0.00912434
7 *151:9 *583:5 0.00211969
8 io_oeb[24] io_out[24] 0
9 *70:15 io_out[24] 0
10 *124:9 *151:9 0.00119065
*RES
1 *664:io_out[24] *151:7 10.7328 
2 *151:7 *151:9 164.244 
3 *151:9 io_out[24] 23.876 
*END

*D_NET *152 0.0372973
*CONN
*P io_out[25] O
*I *664:io_out[25] O *D signal_generator
*CAP
1 io_out[25] 0.00507732
2 *664:io_out[25] 0.000757176
3 *152:9 0.0071494
4 *152:7 0.00282925
5 *152:9 *583:5 0.000934401
6 io_oeb[25] io_out[25] 0
7 *69:13 *152:7 0.000135584
8 *71:13 io_out[25] 0
9 *72:17 *152:9 0.000716665
10 *123:11 *152:9 0.000103193
11 *124:9 *152:9 0.00972778
12 *125:9 *152:9 0.00074215
13 *151:9 *152:9 0.00912434
*RES
1 *664:io_out[25] *152:7 10.6469 
2 *152:7 *152:9 142.411 
3 *152:9 io_out[25] 23.932 
*END

*D_NET *153 0.0257084
*CONN
*P io_out[26] O
*I *664:io_out[26] O *D signal_generator
*CAP
1 io_out[26] 0.000971737
2 *664:io_out[26] 0.0116104
3 *153:9 0.0125821
4 io_out[26] *559:11 0.000100521
5 *153:9 *559:15 0.00044366
6 io_oeb[26] io_out[26] 0
7 *70:15 *153:9 0
8 *72:17 io_out[26] 0
*RES
1 *664:io_out[26] *153:9 45.2904 
2 *153:9 io_out[26] 11.0763 
*END

*D_NET *154 0.263698
*CONN
*P io_out[2] O
*I *664:io_out[2] O *D signal_generator
*CAP
1 io_out[2] 0.000177624
2 *664:io_out[2] 0.00932708
3 *154:13 0.122522
4 *154:11 0.131672
5 io_oeb[2] io_out[2] 0
6 io_oeb[2] *154:13 0
7 *73:7 io_out[2] 0
8 *73:9 io_out[2] 0
9 *73:9 *154:13 0
10 *108:11 *154:11 0
11 *119:11 *154:11 0
12 *127:15 *154:11 0
13 *127:21 *154:13 0
14 *135:11 *154:11 0
15 *146:11 *154:11 0
*RES
1 *664:io_out[2] *154:11 47.7053 
2 *154:11 *154:13 409.64 
3 *154:13 io_out[2] 0.703733 
*END

*D_NET *155 0.267182
*CONN
*P io_out[3] O
*I *664:io_out[3] O *D signal_generator
*CAP
1 io_out[3] 0.000148312
2 *664:io_out[3] 0.00559042
3 *155:25 0.121464
4 *155:23 0.121316
5 *155:21 0.00178544
6 *155:19 0.00737586
7 *155:19 *157:11 0
8 *664:io_in[5] *155:19 0
9 *74:7 io_out[3] 0
10 *74:9 io_out[3] 0
11 *74:9 *155:25 0
12 *108:11 *155:19 5.96381e-05
13 *108:11 *155:21 0.00154732
14 *127:15 *155:19 0.00348203
15 *127:17 *155:21 0.00382669
16 *128:13 *155:25 0
17 *129:21 *155:21 0.000568454
18 *130:11 *155:19 1.85537e-05
*RES
1 *664:io_out[3] *155:19 46.9749 
2 *155:19 *155:21 62.8264 
3 *155:21 *155:23 8 
4 *155:23 *155:25 410.542 
5 *155:25 io_out[3] 0.606667 
*END

*D_NET *156 0.266861
*CONN
*P io_out[4] O
*I *664:io_out[4] O *D signal_generator
*CAP
1 io_out[4] 0.00015638
2 *664:io_out[4] 0.0123507
3 *156:13 0.120878
4 *156:11 0.120721
5 *156:9 0.0123507
6 io_oeb[4] io_out[4] 0
7 io_oeb[4] *156:13 0
8 *664:io_in[0] *156:9 0.000404767
9 *74:15 *156:9 0
10 *75:9 *156:13 0
11 *129:25 *156:13 0
*RES
1 *664:io_out[4] *156:9 48.7549 
2 *156:9 *156:11 8 
3 *156:11 *156:13 407.064 
4 *156:13 io_out[4] 0.636533 
*END

*D_NET *157 0.264561
*CONN
*P io_out[5] O
*I *664:io_out[5] O *D signal_generator
*CAP
1 io_out[5] 0.000175192
2 *664:io_out[5] 0.00299714
3 *157:13 0.122868
4 *157:11 0.12569
5 io_oeb[5] io_out[5] 0
6 io_oeb[5] *157:13 0
7 *664:io_in[3] *157:13 0
8 *664:io_in[5] *157:11 0.00608387
9 *76:7 io_out[5] 0
10 *76:9 io_out[5] 0
11 *76:9 *157:13 0
12 *130:11 *157:11 0.00674674
13 *130:13 *157:13 0
14 *155:19 *157:11 0
*RES
1 *664:io_out[5] *157:11 35.8408 
2 *157:11 *157:13 410.842 
3 *157:13 io_out[5] 0.6944 
*END

*D_NET *158 0.252357
*CONN
*P io_out[6] O
*I *664:io_out[6] O *D signal_generator
*CAP
1 io_out[6] 0.000158682
2 *664:io_out[6] 0.00573183
3 *158:13 0.120249
4 *158:11 0.125822
5 *158:11 *160:9 0.000395015
6 io_oeb[6] *158:13 0
7 *77:15 io_out[6] 0
8 *77:15 *158:13 0
9 *133:7 *158:13 0
*RES
1 *664:io_out[6] *158:11 35.6691 
2 *158:11 *158:13 411.014 
3 *158:13 io_out[6] 0.647733 
*END

*D_NET *159 0.345502
*CONN
*P io_out[7] O
*I *664:io_out[7] O *D signal_generator
*CAP
1 io_out[7] 0.00016958
2 *664:io_out[7] 0.0030433
3 *159:13 0.118126
4 *159:11 0.117957
5 *159:9 0.0515817
6 *159:7 0.054625
7 *159:9 *161:9 0
8 io_oeb[7] *159:13 0
9 *78:11 io_out[7] 0
10 *78:11 *159:13 0
*RES
1 *664:io_out[7] *159:7 18.332 
2 *159:7 *159:9 177.509 
3 *159:9 *159:11 8 
4 *159:11 *159:13 403.286 
5 *159:13 io_out[7] 0.686933 
*END

*D_NET *160 0.414112
*CONN
*P io_out[8] O
*I *664:io_out[8] O *D signal_generator
*CAP
1 io_out[8] 0.000148598
2 *664:io_out[8] 0.000828434
3 *160:13 0.123092
4 *160:11 0.122944
5 *160:9 0.0430973
6 *160:7 0.0439257
7 io_oeb[8] io_out[8] 0
8 io_oeb[8] *160:13 0
9 *79:11 *160:13 0
10 *110:9 *160:9 0
11 *112:9 *160:9 0
12 *133:9 *160:9 0
13 *133:13 *160:13 0
14 *137:9 *160:9 0.0796811
15 *158:11 *160:9 0.000395015
*RES
1 *664:io_out[8] *160:7 10.9475 
2 *160:7 *160:9 211.273 
3 *160:9 *160:11 8 
4 *160:11 *160:13 410.67 
5 *160:13 io_out[8] 0.606667 
*END

*D_NET *161 0.384208
*CONN
*P io_out[9] O
*I *664:io_out[9] O *D signal_generator
*CAP
1 io_out[9] 0.000162676
2 *664:io_out[9] 0.00347389
3 *161:13 0.11764
4 *161:11 0.117477
5 *161:9 0.0709902
6 *161:7 0.0744641
7 io_oeb[9] *161:13 0
8 *80:11 *161:13 0
9 *159:9 *161:9 0
*RES
1 *664:io_out[9] *161:7 19.7059 
2 *161:7 *161:9 245.926 
3 *161:9 *161:11 8 
4 *161:11 *161:13 401.912 
5 *161:13 io_out[9] 0.668267 
*END

*D_NET *558 0.02268
*CONN
*P wb_clk_i I
*I *664:wb_clk_i I *D signal_generator
*CAP
1 wb_clk_i 0.00106148
2 *664:wb_clk_i 7.90936e-05
3 *558:13 0.0027412
4 *558:11 0.0089626
5 *558:7 0.00736198
6 *664:wb_clk_i *559:21 0
7 *558:13 *559:21 0
8 *558:13 *586:5 0.00247363
9 *72:17 *558:11 0
*RES
1 wb_clk_i *558:7 31.3139 
2 *558:7 *558:11 28.0629 
3 *558:11 *558:13 77.6164 
4 *558:13 *664:wb_clk_i 1.86429 
*END

*D_NET *559 0.0263204
*CONN
*P wb_rst_i I
*I *664:wb_rst_i I *D signal_generator
*CAP
1 wb_rst_i 0.00125557
2 *664:wb_rst_i 5.53493e-05
3 *559:21 0.00231617
4 *559:19 0.00654278
5 *559:15 0.00592288
6 *559:11 0.0028965
7 *559:11 wbs_ack_o 0.00029466
8 *559:19 *626:13 0.00545699
9 *559:21 *619:5 3.08448e-05
10 io_oeb[24] *559:19 0.000889745
11 io_out[26] *559:11 0.000100521
12 *664:wb_clk_i *559:21 0
13 *72:17 *559:11 0.000114755
14 *153:9 *559:15 0.00044366
15 *558:13 *559:21 0
*RES
1 wb_rst_i *559:11 33.9585 
2 *559:11 *559:15 44.0636 
3 *559:15 *559:19 26.088 
4 *559:19 *559:21 50.1493 
5 *559:21 *664:wb_rst_i 1.26357 
*END

*D_NET *560 0.0264095
*CONN
*P wbs_ack_o O
*I *664:wbs_ack_o O *D signal_generator
*CAP
1 wbs_ack_o 0.00108383
2 *664:wbs_ack_o 0.00562496
3 *560:17 0.00316559
4 *560:15 0.00208175
5 *560:13 0.00562496
6 wbs_ack_o *593:11 0.000391254
7 *560:13 *593:17 0
8 *560:13 *605:9 0.00541617
9 *560:13 *663:9 0
10 *560:17 *593:13 0.00230102
11 *70:15 *560:17 0.00015852
12 *72:17 wbs_ack_o 0.000266766
13 *559:11 wbs_ack_o 0.00029466
*RES
1 *664:wbs_ack_o *560:13 48.6074 
2 *560:13 *560:15 8 
3 *560:15 *560:17 63.5307 
4 *560:17 wbs_ack_o 34.7487 
*END

*D_NET *561 0.025359
*CONN
*P wbs_adr_i[0] I
*I *664:wbs_adr_i[0] I *D signal_generator
*CAP
1 wbs_adr_i[0] 0.00293837
2 *664:wbs_adr_i[0] 0.00130224
3 *561:11 0.00454166
4 *561:5 0.00617779
5 *664:wbs_adr_i[0] *661:5 0.00181428
6 *561:11 *594:17 0.00752941
7 *561:11 *616:9 0
8 io_out[24] *561:11 0.000852144
9 *71:13 *561:5 0.000203065
*RES
1 wbs_adr_i[0] *561:5 65.5711 
2 *561:5 *561:11 32.4565 
3 *561:11 *664:wbs_adr_i[0] 37.0786 
*END

*D_NET *562 0.0198902
*CONN
*P wbs_adr_i[10] I
*I *664:wbs_adr_i[10] I *D signal_generator
*CAP
1 wbs_adr_i[10] 0.00275426
2 *664:wbs_adr_i[10] 0.00202281
3 *562:11 0.00429959
4 *562:5 0.00503104
5 *562:5 *573:13 0
6 *562:11 *568:11 0
7 *562:11 *616:9 0.00578251
8 *562:11 *619:9 0
*RES
1 wbs_adr_i[10] *562:5 58.5282 
2 *562:5 *562:11 26.7893 
3 *562:11 *664:wbs_adr_i[10] 44.2664 
*END

*D_NET *563 0.0223179
*CONN
*P wbs_adr_i[11] I
*I *664:wbs_adr_i[11] I *D signal_generator
*CAP
1 wbs_adr_i[11] 0.0038497
2 *664:wbs_adr_i[11] 6.23073e-05
3 *563:15 0.00382687
4 *563:5 0.00761426
5 *563:5 *576:13 0
6 *563:5 *577:13 0
7 *563:15 *570:11 0
8 *563:15 *605:9 0.0069648
9 *563:15 *621:11 0
*RES
1 wbs_adr_i[11] *563:5 80.3611 
2 *563:5 *563:15 49.9744 
3 *563:15 *664:wbs_adr_i[11] 1.48107 
*END

*D_NET *564 0.0216138
*CONN
*P wbs_adr_i[12] I
*I *664:wbs_adr_i[12] I *D signal_generator
*CAP
1 wbs_adr_i[12] 0.00148889
2 *664:wbs_adr_i[12] 7.90936e-05
3 *564:13 0.00321971
4 *564:11 0.00685059
5 *564:7 0.00519887
6 *564:7 *580:13 0.000265711
7 *564:11 *573:11 0.000400068
8 *564:11 *578:9 0
9 *564:11 *595:11 0.00287729
10 *564:11 *620:11 0
11 *564:11 *623:11 0.00123361
*RES
1 wbs_adr_i[12] *564:7 40.4696 
2 *564:7 *564:11 23.3403 
3 *564:11 *564:13 68.4607 
4 *564:13 *664:wbs_adr_i[12] 1.86429 
*END

*D_NET *565 0.0267909
*CONN
*P wbs_adr_i[13] I
*I *664:wbs_adr_i[13] I *D signal_generator
*CAP
1 wbs_adr_i[13] 0.00202169
2 *664:wbs_adr_i[13] 7.90936e-05
3 *565:15 0.00195228
4 *565:13 0.00579755
5 *565:7 0.00594605
6 *565:7 wbs_dat_o[12] 0
7 *565:7 *582:13 0
8 *565:7 *584:13 0.000505238
9 *565:13 *566:11 0
10 *565:13 *575:9 0.00430791
11 *565:13 *597:11 0
12 *565:13 *620:11 0
13 *565:13 *622:11 0.00262947
14 *565:15 wbs_dat_o[7] 0.00355164
*RES
1 wbs_adr_i[13] *565:7 46.0168 
2 *565:7 *565:13 33.3152 
3 *565:13 *565:15 56.4879 
4 *565:15 *664:wbs_adr_i[13] 1.86429 
*END

*D_NET *566 0.0306044
*CONN
*P wbs_adr_i[14] I
*I *664:wbs_adr_i[14] I *D signal_generator
*CAP
1 wbs_adr_i[14] 0.0019561
2 *664:wbs_adr_i[14] 7.90936e-05
3 *566:13 0.00292321
4 *566:11 0.00642829
5 *566:7 0.00554027
6 *566:11 *597:11 0.00299197
7 *566:11 *620:11 0.0106854
8 *565:13 *566:11 0
*RES
1 wbs_adr_i[14] *566:7 47.5125 
2 *566:7 *566:11 27.8912 
3 *566:11 *566:13 61.4179 
4 *566:13 *664:wbs_adr_i[14] 1.86429 
*END

*D_NET *567 0.030168
*CONN
*P wbs_adr_i[15] I
*I *664:wbs_adr_i[15] I *D signal_generator
*CAP
1 wbs_adr_i[15] 0.00297569
2 *664:wbs_adr_i[15] 0.00190489
3 *567:11 0.00640332
4 *567:5 0.00747412
5 *664:wbs_adr_i[15] *624:5 0.000498882
6 *567:5 *664:wbs_dat_i[3] 0
7 *567:5 *620:13 0
8 *567:11 *574:9 0.00860532
9 *567:11 *585:9 0
10 *567:11 *592:11 0.00119824
11 *567:11 *594:17 0
12 *567:11 *616:9 0.00110757
*RES
1 wbs_adr_i[15] *567:5 60.6411 
2 *567:5 *567:11 38.0379 
3 *567:11 *664:wbs_adr_i[15] 42.485 
*END

*D_NET *568 0.031751
*CONN
*P wbs_adr_i[16] I
*I *664:wbs_adr_i[16] I *D signal_generator
*CAP
1 wbs_adr_i[16] 0.00263153
2 *664:wbs_adr_i[16] 0.00228698
3 *568:11 0.00735936
4 *568:5 0.00770392
5 *568:5 *622:13 0
6 *568:5 *623:13 0
7 *568:11 *579:9 0.000976272
8 *568:11 *616:9 0
9 *568:11 *619:9 0.010793
10 *568:11 *628:15 0
11 *562:11 *568:11 0
*RES
1 wbs_adr_i[16] *568:5 53.5982 
2 *568:5 *568:11 40.4421 
3 *568:11 *664:wbs_adr_i[16] 49.1964 
*END

*D_NET *569 0.0346865
*CONN
*P wbs_adr_i[17] I
*I *664:wbs_adr_i[17] I *D signal_generator
*CAP
1 wbs_adr_i[17] 0.00281465
2 *664:wbs_adr_i[17] 0.00161213
3 *569:11 0.00684487
4 *569:5 0.00804738
5 *569:5 *595:13 0.00140442
6 *569:11 *593:17 0
7 *569:11 *624:11 0.0133973
8 *569:11 *627:13 0
9 *569:11 *631:13 0.000565745
*RES
1 wbs_adr_i[17] *569:5 67.6839 
2 *569:5 *569:11 42.6747 
3 *569:11 *664:wbs_adr_i[17] 35.1107 
*END

*D_NET *570 0.040276
*CONN
*P wbs_adr_i[18] I
*I *664:wbs_adr_i[18] I *D signal_generator
*CAP
1 wbs_adr_i[18] 0.00360589
2 *664:wbs_adr_i[18] 0.00122206
3 *570:11 0.0059548
4 *570:5 0.00833862
5 *664:wbs_adr_i[18] *625:5 0.000159083
6 *570:11 *598:11 0.00806072
7 *570:11 *600:11 0.00214306
8 *570:11 *605:9 0
9 *570:11 *621:11 0.0107918
10 *563:15 *570:11 0
*RES
1 wbs_adr_i[18] *570:5 75.4311 
2 *570:5 *570:11 44.9931 
3 *570:11 *664:wbs_adr_i[18] 27.3636 
*END

*D_NET *571 0.0479808
*CONN
*P wbs_adr_i[19] I
*I *664:wbs_adr_i[19] I *D signal_generator
*CAP
1 wbs_adr_i[19] 0.00390195
2 *664:wbs_adr_i[19] 0.000971451
3 *571:11 0.00404059
4 *571:5 0.0069711
5 *664:wbs_adr_i[19] wbs_dat_o[9] 0
6 *664:wbs_adr_i[19] *625:5 0
7 *571:11 *664:wbs_dat_i[16] 0
8 *571:11 *664:wbs_dat_i[17] 0.00296213
9 *571:11 *599:15 0.00713199
10 *571:11 *605:9 0.00838056
11 *571:11 *625:11 0.0128863
12 *571:11 *629:13 0.00073474
*RES
1 wbs_adr_i[19] *571:5 81.7696 
2 *571:5 *571:11 47.2256 
3 *571:11 *664:wbs_adr_i[19] 21.025 
*END

*D_NET *572 0.024897
*CONN
*P wbs_adr_i[1] I
*I *664:wbs_adr_i[1] I *D signal_generator
*CAP
1 wbs_adr_i[1] 0.00306378
2 *664:wbs_adr_i[1] 7.90936e-05
3 *572:13 0.00316527
4 *572:11 0.00614996
5 *664:wbs_adr_i[1] *664:wbs_adr_i[2] 0
6 *572:11 *648:21 0.000408808
7 *572:11 *658:13 0.000509161
8 *572:11 *660:9 0.00285332
9 *572:11 *662:13 0.00442229
10 *572:13 *664:wbs_adr_i[2] 0
11 *572:13 *587:5 0.00369862
12 *72:17 *572:11 0.000546687
*RES
1 wbs_adr_i[1] *572:11 44.7604 
2 *572:11 *572:13 85.3636 
3 *572:13 *664:wbs_adr_i[1] 1.86429 
*END

*D_NET *573 0.0481591
*CONN
*P wbs_adr_i[20] I
*I *664:wbs_adr_i[20] I *D signal_generator
*CAP
1 wbs_adr_i[20] 0.0015611
2 *664:wbs_adr_i[20] 7.90936e-05
3 *573:13 0.00339618
4 *573:11 0.0081401
5 *573:7 0.00638411
6 *573:7 *606:9 0
7 *573:11 *576:11 0
8 *573:11 *595:11 0.0116247
9 *573:11 *623:11 0.010808
10 *573:11 *630:13 0
11 *573:11 *633:13 0.00576573
12 *573:13 wbs_dat_o[9] 0
13 *562:5 *573:13 0
14 *564:11 *573:11 0.000400068
*RES
1 wbs_adr_i[20] *573:7 39.0611 
2 *573:7 *573:11 41.544 
3 *573:11 *573:13 69.8693 
4 *573:13 *664:wbs_adr_i[20] 1.86429 
*END

*D_NET *574 0.0446897
*CONN
*P wbs_adr_i[21] I
*I *664:wbs_adr_i[21] I *D signal_generator
*CAP
1 wbs_adr_i[21] 0.00257235
2 *664:wbs_adr_i[21] 6.23073e-05
3 *574:15 0.00204577
4 *574:9 0.00779631
5 *574:5 0.00838519
6 *574:5 *608:13 0
7 *574:5 *609:13 0.000637004
8 *574:5 *648:19 0.000354862
9 *574:9 *585:9 0
10 *574:9 *604:11 0.000239636
11 *574:9 *616:9 0.00781333
12 *574:9 *628:15 0.00617762
13 *567:11 *574:9 0.00860532
*RES
1 wbs_adr_i[21] *574:5 59.9368 
2 *574:5 *574:9 43.8624 
3 *574:9 *574:15 49.3768 
4 *574:15 *664:wbs_adr_i[21] 1.48107 
*END

*D_NET *575 0.0493282
*CONN
*P wbs_adr_i[22] I
*I *664:wbs_adr_i[22] I *D signal_generator
*CAP
1 wbs_adr_i[22] 0.00226564
2 *664:wbs_adr_i[22] 7.96822e-05
3 *575:13 0.00280592
4 *575:11 0.00272623
5 *575:9 0.00626335
6 *575:5 0.00852899
7 *575:9 *596:11 0.00151816
8 *575:9 *597:11 0
9 *575:9 *622:11 0.00953543
10 *575:9 *626:13 0
11 *575:9 *632:13 0.0112969
12 *575:13 wbs_dat_o[10] 0
13 *565:13 *575:9 0.00430791
*RES
1 wbs_adr_i[22] *575:5 45.1468 
2 *575:5 *575:9 46.0949 
3 *575:9 *575:11 8 
4 *575:11 *575:13 55.7836 
5 *575:13 *664:wbs_adr_i[22] 1.86429 
*END

*D_NET *576 0.0495746
*CONN
*P wbs_adr_i[23] I
*I *664:wbs_adr_i[23] I *D signal_generator
*CAP
1 wbs_adr_i[23] 0.00139715
2 *664:wbs_adr_i[23] 7.90936e-05
3 *576:13 0.00364206
4 *576:11 0.0096634
5 *576:7 0.00749758
6 *576:11 *577:9 0.0212538
7 *576:11 *608:11 0.00280606
8 *576:11 *623:11 0.00174711
9 *576:11 *633:13 0.0014884
10 *576:13 wbs_dat_o[10] 0
11 *563:5 *576:13 0
12 *573:11 *576:11 0
*RES
1 wbs_adr_i[23] *576:7 34.8354 
2 *576:7 *576:11 48.4133 
3 *576:11 *576:13 74.095 
4 *576:13 *664:wbs_adr_i[23] 1.86429 
*END

*D_NET *577 0.06224
*CONN
*P wbs_adr_i[24] I
*I *664:wbs_adr_i[24] I *D signal_generator
*CAP
1 wbs_adr_i[24] 0.00136502
2 *664:wbs_adr_i[24] 7.90936e-05
3 *577:13 0.00367632
4 *577:11 0.00359723
5 *577:9 0.00477337
6 *577:7 0.00613838
7 *577:7 *637:9 0
8 *577:9 *580:9 0.0213568
9 *577:9 *633:13 0
10 *577:13 *596:5 0
11 *563:5 *577:13 0
12 *576:11 *577:9 0.0212538
*RES
1 wbs_adr_i[24] *577:7 34.1311 
2 *577:7 *577:9 42.6459 
3 *577:9 *577:11 8 
4 *577:11 *577:13 74.7993 
5 *577:13 *664:wbs_adr_i[24] 1.86429 
*END

*D_NET *578 0.0560243
*CONN
*P wbs_adr_i[25] I
*I *664:wbs_adr_i[25] I *D signal_generator
*CAP
1 wbs_adr_i[25] 0.00189202
2 *664:wbs_adr_i[25] 7.96822e-05
3 *578:13 0.00316841
4 *578:11 0.00308873
5 *578:9 0.00713439
6 *578:7 0.00902641
7 *578:7 *651:9 0
8 *578:7 *652:9 0
9 *578:9 *595:11 0
10 *578:9 *597:11 0.00160086
11 *578:9 *607:11 0.000403151
12 *578:9 *618:11 0.00258209
13 *578:9 *620:11 0.00673112
14 *578:9 *630:13 0.0203174
15 *578:9 *632:13 0
16 *578:13 wbs_dat_o[11] 0
17 *578:13 *596:5 0
18 *564:11 *578:9 0
*RES
1 wbs_adr_i[25] *578:7 46.1039 
2 *578:7 *578:9 44.9643 
3 *578:9 *578:11 8 
4 *578:11 *578:13 62.8264 
5 *578:13 *664:wbs_adr_i[25] 1.86429 
*END

*D_NET *579 0.0645159
*CONN
*P wbs_adr_i[26] I
*I *664:wbs_adr_i[26] I *D signal_generator
*CAP
1 wbs_adr_i[26] 0.00252121
2 *664:wbs_adr_i[26] 6.23073e-05
3 *579:15 0.00236789
4 *579:11 0.00230558
5 *579:9 0.00634382
6 *579:7 0.00634382
7 *579:5 0.00252121
8 *579:5 *654:9 0
9 *579:9 *617:11 0
10 *579:9 *619:9 0.00544709
11 *579:9 *626:13 0.0210427
12 *579:9 *628:15 0
13 *579:9 *634:13 0.0144366
14 *579:15 wbs_dat_o[11] 0.000147408
15 *568:11 *579:9 0.000976272
*RES
1 wbs_adr_i[26] *579:5 52.1896 
2 *579:5 *579:7 8 
3 *579:7 *579:9 47.1968 
4 *579:9 *579:11 8 
5 *579:11 *579:15 49.1239 
6 *579:15 *664:wbs_adr_i[26] 1.48107 
*END

*D_NET *580 0.0689411
*CONN
*P wbs_adr_i[27] I
*I *664:wbs_adr_i[27] I *D signal_generator
*CAP
1 wbs_adr_i[27] 0.00128428
2 *664:wbs_adr_i[27] 7.90936e-05
3 *580:13 0.00366196
4 *580:11 0.00358286
5 *580:9 0.00559417
6 *580:7 0.00687845
7 *580:7 *636:19 0
8 *580:9 *581:9 0.0262377
9 *580:9 *633:13 0
10 *564:7 *580:13 0.000265711
11 *577:9 *580:9 0.0213568
*RES
1 wbs_adr_i[27] *580:7 33.4268 
2 *580:7 *580:9 49.5152 
3 *580:9 *580:11 8 
4 *580:11 *580:13 75.5036 
5 *580:13 *664:wbs_adr_i[27] 1.86429 
*END

*D_NET *581 0.0749344
*CONN
*P wbs_adr_i[28] I
*I *664:wbs_adr_i[28] I *D signal_generator
*CAP
1 wbs_adr_i[28] 0.00124579
2 *664:wbs_adr_i[28] 7.90936e-05
3 *581:13 0.00355181
4 *581:11 0.00347272
5 *581:9 0.00522595
6 *581:7 0.00647174
7 *581:9 *582:9 0.0274593
8 *581:9 *633:13 0
9 *581:9 *652:21 0
10 *581:13 *597:7 0.00119025
11 *580:9 *581:9 0.0262377
*RES
1 wbs_adr_i[28] *581:7 32.7225 
2 *581:7 *581:9 51.7477 
3 *581:9 *581:11 8 
4 *581:11 *581:13 76.2079 
5 *581:13 *664:wbs_adr_i[28] 1.86429 
*END

*D_NET *582 0.0795594
*CONN
*P wbs_adr_i[29] I
*I *664:wbs_adr_i[29] I *D signal_generator
*CAP
1 wbs_adr_i[29] 0.00121581
2 *664:wbs_adr_i[29] 7.90936e-05
3 *582:13 0.00294289
4 *582:11 0.0028638
5 *582:9 0.00538561
6 *582:7 0.00660143
7 *582:7 *639:19 0
8 *582:9 *584:9 0.0286925
9 *582:9 *633:13 0
10 *582:13 wbs_dat_o[12] 0.00431893
11 *565:7 *582:13 0
12 *581:9 *582:9 0.0274593
*RES
1 wbs_adr_i[29] *582:7 32.0182 
2 *582:7 *582:9 54.0661 
3 *582:9 *582:11 8 
4 *582:11 *582:13 76.9121 
5 *582:13 *664:wbs_adr_i[29] 1.86429 
*END

*D_NET *583 0.0184534
*CONN
*P wbs_adr_i[2] I
*I *664:wbs_adr_i[2] I *D signal_generator
*CAP
1 wbs_adr_i[2] 0.00346775
2 *664:wbs_adr_i[2] 0.00265034
3 *583:5 0.00611809
4 *664:wbs_adr_i[2] *659:9 0.00219335
5 *664:wbs_adr_i[2] *661:9 0.000969767
6 *664:wbs_adr_i[1] *664:wbs_adr_i[2] 0
7 *125:9 *583:5 0
8 *151:9 *583:5 0.00211969
9 *152:9 *583:5 0.000934401
10 *572:13 *664:wbs_adr_i[2] 0
*RES
1 wbs_adr_i[2] *583:5 89.5168 
2 *583:5 *664:wbs_adr_i[2] 39.9776 
*END

*D_NET *584 0.0656028
*CONN
*P wbs_adr_i[30] I
*I *664:wbs_adr_i[30] I *D signal_generator
*CAP
1 wbs_adr_i[30] 0.00115029
2 *664:wbs_adr_i[30] 7.90936e-05
3 *584:13 0.00367358
4 *584:11 0.00359448
5 *584:9 0.0101127
6 *584:7 0.011263
7 *584:7 *636:9 0
8 *584:7 *638:9 0
9 *584:9 wbs_dat_o[27] 0
10 *584:9 wbs_dat_o[28] 0
11 *584:9 *611:9 0.00653197
12 *584:9 *642:15 0
13 *584:9 *652:21 0
14 *565:7 *584:13 0.000505238
15 *582:9 *584:9 0.0286925
*RES
1 wbs_adr_i[30] *584:7 31.3139 
2 *584:7 *584:9 56.2987 
3 *584:9 *584:11 8 
4 *584:11 *584:13 77.6164 
5 *584:13 *664:wbs_adr_i[30] 1.86429 
*END

*D_NET *585 0.0622538
*CONN
*P wbs_adr_i[31] I
*I *664:wbs_adr_i[31] I *D signal_generator
*CAP
1 wbs_adr_i[31] 0.0023492
2 *664:wbs_adr_i[31] 0.00163014
3 *585:9 0.0141749
4 *585:7 0.0125448
5 *585:5 0.0023492
6 *664:wbs_adr_i[31] *598:5 0.000810181
7 *585:5 *640:9 0
8 *585:5 *641:9 0.00192427
9 *585:9 *594:17 0.00116255
10 *585:9 *604:11 0.000236301
11 *585:9 *612:11 0
12 *585:9 *624:11 0.000698581
13 *585:9 *628:15 0
14 *585:9 *631:13 0.0243737
15 *567:11 *585:9 0
16 *574:9 *585:9 0
*RES
1 wbs_adr_i[31] *585:5 65.5711 
2 *585:5 *585:7 8 
3 *585:7 *585:9 58.6171 
4 *585:9 *664:wbs_adr_i[31] 45.2236 
*END

*D_NET *586 0.014337
*CONN
*P wbs_adr_i[3] I
*I *664:wbs_adr_i[3] I *D signal_generator
*CAP
1 wbs_adr_i[3] 0.00301621
2 *664:wbs_adr_i[3] 0.00218981
3 *586:5 0.00520602
4 *664:wbs_adr_i[3] *605:9 0.000573379
5 *664:wbs_adr_i[3] *663:9 0.000877913
6 *586:5 *662:13 0
7 *558:13 *586:5 0.00247363
*RES
1 wbs_adr_i[3] *586:5 84.5868 
2 *586:5 *664:wbs_adr_i[3] 41.5588 
*END

*D_NET *587 0.0133486
*CONN
*P wbs_adr_i[4] I
*I *664:wbs_adr_i[4] I *D signal_generator
*CAP
1 wbs_adr_i[4] 0.00205881
2 *664:wbs_adr_i[4] 0.00179056
3 *587:11 0.002475
4 *587:5 0.00274326
5 *664:wbs_adr_i[4] *664:wbs_adr_i[5] 0
6 *587:11 *594:17 0.000289994
7 *587:11 *616:9 0.000292372
8 *572:13 *587:5 0.00369862
*RES
1 wbs_adr_i[4] *587:5 62.7539 
2 *587:5 *587:11 19.0613 
3 *587:11 *664:wbs_adr_i[4] 40.0407 
*END

*D_NET *588 0.00953269
*CONN
*P wbs_adr_i[5] I
*I *664:wbs_adr_i[5] I *D signal_generator
*CAP
1 wbs_adr_i[5] 0.00283172
2 *664:wbs_adr_i[5] 0.00193463
3 *588:5 0.00476635
4 *664:wbs_adr_i[5] *621:5 0
5 *664:wbs_adr_i[4] *664:wbs_adr_i[5] 0
*RES
1 wbs_adr_i[5] *588:5 62.7539 
2 *588:5 *664:wbs_adr_i[5] 43.3757 
*END

*D_NET *589 0.0103018
*CONN
*P wbs_adr_i[6] I
*I *664:wbs_adr_i[6] I *D signal_generator
*CAP
1 wbs_adr_i[6] 0.00187469
2 *664:wbs_adr_i[6] 7.90936e-05
3 *589:13 0.0027769
4 *589:11 0.00303827
5 *589:7 0.00221515
6 *589:7 *590:13 0
7 *589:7 *591:13 0
8 *589:11 *620:11 0.000317711
9 *589:13 wbs_dat_o[5] 0
10 *589:13 *621:5 0
*RES
1 wbs_adr_i[6] *589:7 48.9211 
2 *589:7 *589:11 9.6016 
3 *589:11 *589:13 60.0093 
4 *589:13 *664:wbs_adr_i[6] 1.86429 
*END

*D_NET *590 0.0128201
*CONN
*P wbs_adr_i[7] I
*I *664:wbs_adr_i[7] I *D signal_generator
*CAP
1 wbs_adr_i[7] 0.00161545
2 *664:wbs_adr_i[7] 7.90936e-05
3 *590:13 0.00375959
4 *590:11 0.00529595
5 *590:11 *652:21 0.00207002
6 *590:13 wbs_dat_o[5] 0
7 *589:7 *590:13 0
*RES
1 wbs_adr_i[7] *590:11 39.0082 
2 *590:11 *590:13 81.8421 
3 *590:13 *664:wbs_adr_i[7] 1.86429 
*END

*D_NET *591 0.0137819
*CONN
*P wbs_adr_i[8] I
*I *664:wbs_adr_i[8] I *D signal_generator
*CAP
1 wbs_adr_i[8] 0.00173614
2 *664:wbs_adr_i[8] 7.90936e-05
3 *591:13 0.00295728
4 *591:11 0.00416487
5 *591:7 0.00302282
6 *591:11 *620:11 0.00182167
7 *591:11 *623:11 0
8 *591:13 *622:5 0
9 *589:7 *591:13 0
*RES
1 wbs_adr_i[8] *591:7 45.3996 
2 *591:7 *591:11 14.2384 
3 *591:11 *591:13 63.5307 
4 *591:13 *664:wbs_adr_i[8] 1.86429 
*END

*D_NET *592 0.0182792
*CONN
*P wbs_adr_i[9] I
*I *664:wbs_adr_i[9] I *D signal_generator
*CAP
1 wbs_adr_i[9] 0.00282561
2 *664:wbs_adr_i[9] 0.00193839
3 *592:11 0.00343235
4 *592:5 0.00431957
5 *592:11 *594:17 0
6 *592:11 *616:9 0.00456503
7 *567:11 *592:11 0.00119824
*RES
1 wbs_adr_i[9] *592:5 59.9368 
2 *592:5 *592:11 24.4709 
3 *592:11 *664:wbs_adr_i[9] 42.8579 
*END

*D_NET *593 0.0552429
*CONN
*P wbs_cyc_i I
*I *664:wbs_cyc_i I *D signal_generator
*CAP
1 wbs_cyc_i 0.000892978
2 *664:wbs_cyc_i 0.00139535
3 *593:17 0.0138127
4 *593:15 0.0124173
5 *593:13 0.0018362
6 *593:11 0.00272917
7 *593:17 *605:9 0
8 *593:17 *621:11 0.0143129
9 *593:17 *624:11 0
10 *593:17 *627:13 0.00513352
11 wbs_ack_o *593:11 0.000391254
12 *72:17 *593:11 2.05341e-05
13 *560:13 *593:17 0
14 *560:17 *593:13 0.00230102
15 *569:11 *593:17 0
*RES
1 wbs_cyc_i *593:11 33.1857 
2 *593:11 *593:13 57.8964 
3 *593:13 *593:15 8 
4 *593:15 *593:17 52.0053 
5 *593:17 *664:wbs_cyc_i 36.7721 
*END

*D_NET *594 0.0518471
*CONN
*P wbs_dat_i[0] I
*I *664:wbs_dat_i[0] I *D signal_generator
*CAP
1 wbs_dat_i[0] 0.0010864
2 *664:wbs_dat_i[0] 0.00175676
3 *594:17 0.0127241
4 *594:15 0.0109674
5 *594:13 0.00227289
6 *594:11 0.00335929
7 *594:11 wbs_dat_o[0] 0.000163351
8 *594:11 *662:13 0.000353417
9 *594:13 wbs_dat_o[0] 1.61501e-05
10 *594:17 *616:9 0
11 *594:17 *624:11 0.0100039
12 *72:17 *594:11 0.00016149
13 *561:11 *594:17 0.00752941
14 *567:11 *594:17 0
15 *585:9 *594:17 0.00116255
16 *587:11 *594:17 0.000289994
17 *592:11 *594:17 0
*RES
1 wbs_dat_i[0] *594:11 33.7009 
2 *594:11 *594:13 50.1493 
3 *594:13 *594:15 8 
4 *594:15 *594:17 48.0555 
5 *594:17 *664:wbs_dat_i[0] 44.5193 
*END

*D_NET *595 0.0325309
*CONN
*P wbs_dat_i[10] I
*I *664:wbs_dat_i[10] I *D signal_generator
*CAP
1 wbs_dat_i[10] 0.00153132
2 *664:wbs_dat_i[10] 7.90936e-05
3 *595:13 0.00289575
4 *595:11 0.00670183
5 *595:7 0.00541649
6 *564:11 *595:11 0.00287729
7 *569:5 *595:13 0.00140442
8 *573:11 *595:11 0.0116247
9 *578:9 *595:11 0
*RES
1 wbs_dat_i[10] *595:7 39.7654 
2 *595:7 *595:11 30.2096 
3 *595:11 *595:13 69.165 
4 *595:13 *664:wbs_dat_i[10] 1.86429 
*END

*D_NET *596 0.0287876
*CONN
*P wbs_dat_i[11] I
*I *664:wbs_dat_i[11] I *D signal_generator
*CAP
1 wbs_dat_i[11] 0.00225151
2 *664:wbs_dat_i[11] 7.90936e-05
3 *596:13 0.00214096
4 *596:11 0.00590509
5 *596:5 0.00609474
6 *596:11 *622:11 0.00804214
7 *596:11 *626:13 0
8 *596:13 *602:5 0.00275591
9 *575:9 *596:11 0.00151816
10 *577:13 *596:5 0
11 *578:13 *596:5 0
*RES
1 wbs_dat_i[11] *596:5 46.5554 
2 *596:5 *596:11 35.9771 
3 *596:11 *596:13 54.375 
4 *596:13 *664:wbs_dat_i[11] 1.86429 
*END

*D_NET *597 0.0241668
*CONN
*P wbs_dat_i[12] I
*I *664:wbs_dat_i[12] I *D signal_generator
*CAP
1 wbs_dat_i[12] 0.00170191
2 *664:wbs_dat_i[12] 0.000877129
3 *597:15 0.00278047
4 *597:11 0.00554308
5 *597:7 0.00534164
6 *597:11 *620:11 0.00114777
7 *597:11 *632:13 0
8 *597:15 wbs_dat_o[17] 0.000991769
9 *565:13 *597:11 0
10 *566:11 *597:11 0.00299197
11 *575:9 *597:11 0
12 *578:9 *597:11 0.00160086
13 *581:13 *597:7 0.00119025
*RES
1 wbs_dat_i[12] *597:7 48.2168 
2 *597:7 *597:11 25.5728 
3 *597:11 *597:15 44.6186 
4 *597:15 *664:wbs_dat_i[12] 18.7257 
*END

*D_NET *598 0.0244827
*CONN
*P wbs_dat_i[13] I
*I *664:wbs_dat_i[13] I *D signal_generator
*CAP
1 wbs_dat_i[13] 0.00359288
2 *664:wbs_dat_i[13] 0.00127947
3 *598:11 0.004213
4 *598:5 0.00652641
5 *598:11 *629:13 0
6 *664:wbs_adr_i[31] *598:5 0.000810181
7 *570:11 *598:11 0.00806072
*RES
1 wbs_dat_i[13] *598:5 76.1354 
2 *598:5 *598:11 31.3403 
3 *598:11 *664:wbs_dat_i[13] 26.5143 
*END

*D_NET *599 0.0264251
*CONN
*P wbs_dat_i[14] I
*I *664:wbs_dat_i[14] I *D signal_generator
*CAP
1 wbs_dat_i[14] 0.00398104
2 *664:wbs_dat_i[14] 6.23073e-05
3 *599:15 0.0020995
4 *599:5 0.00601823
5 *599:5 *616:13 0
6 *599:15 *629:13 0.00713199
7 *571:11 *599:15 0.00713199
*RES
1 wbs_dat_i[14] *599:5 81.0654 
2 *599:5 *599:15 49.3559 
3 *599:15 *664:wbs_dat_i[14] 1.48107 
*END

*D_NET *600 0.0212814
*CONN
*P wbs_dat_i[15] I
*I *664:wbs_dat_i[15] I *D signal_generator
*CAP
1 wbs_dat_i[15] 0.0035925
2 *664:wbs_dat_i[15] 0.00136917
3 *600:11 0.00295593
4 *600:5 0.00517926
5 *664:wbs_dat_i[15] *664:wbs_dat_i[16] 0
6 *664:wbs_dat_i[15] *603:5 0
7 *600:5 *620:13 0
8 *600:11 *664:wbs_dat_i[18] 5.33098e-05
9 *600:11 *621:11 0.000300093
10 *600:11 *627:13 0.00568812
11 *570:11 *600:11 0.00214306
*RES
1 wbs_dat_i[15] *600:5 74.0225 
2 *600:5 *600:11 26.8752 
3 *600:11 *664:wbs_dat_i[15] 28.7721 
*END

*D_NET *601 0.0179305
*CONN
*P wbs_dat_i[16] I
*I *664:wbs_dat_i[16] I *D signal_generator
*CAP
1 wbs_dat_i[16] 0.003994
2 *664:wbs_dat_i[16] 0.00252116
3 *601:5 0.00651516
4 *664:wbs_dat_i[16] *664:wbs_dat_i[17] 0
5 *664:wbs_dat_i[16] *625:11 0
6 *664:wbs_dat_i[16] *663:9 0.00441886
7 *601:5 *664:wbs_dat_i[8] 0.000481281
8 *601:5 *623:13 0
9 *664:wbs_dat_i[15] *664:wbs_dat_i[16] 0
10 *571:11 *664:wbs_dat_i[16] 0
*RES
1 wbs_dat_i[16] *601:5 86.6996 
2 *601:5 *664:wbs_dat_i[16] 41.5926 
*END

*D_NET *602 0.0175068
*CONN
*P wbs_dat_i[17] I
*I *664:wbs_dat_i[17] I *D signal_generator
*CAP
1 wbs_dat_i[17] 0.00348957
2 *664:wbs_dat_i[17] 0.00232579
3 *602:5 0.00581536
4 *664:wbs_dat_i[17] *629:13 0.000158043
5 *664:wbs_dat_i[17] *663:9 0
6 *664:wbs_dat_i[16] *664:wbs_dat_i[17] 0
7 *571:11 *664:wbs_dat_i[17] 0.00296213
8 *596:13 *602:5 0.00275591
*RES
1 wbs_dat_i[17] *602:5 82.4739 
2 *602:5 *664:wbs_dat_i[17] 42.645 
*END

*D_NET *603 0.0125385
*CONN
*P wbs_dat_i[18] I
*I *664:wbs_dat_i[18] I *D signal_generator
*CAP
1 wbs_dat_i[18] 0.00369672
2 *664:wbs_dat_i[18] 0.00226683
3 *603:5 0.00596355
4 *664:wbs_dat_i[18] *627:13 0
5 *664:wbs_dat_i[18] *629:13 0.000558071
6 *664:wbs_dat_i[15] *603:5 0
7 *600:11 *664:wbs_dat_i[18] 5.33098e-05
*RES
1 wbs_dat_i[18] *603:5 77.5439 
2 *603:5 *664:wbs_dat_i[18] 45.2566 
*END

*D_NET *604 0.0110582
*CONN
*P wbs_dat_i[19] I
*I *664:wbs_dat_i[19] I *D signal_generator
*CAP
1 wbs_dat_i[19] 0.00302768
2 *664:wbs_dat_i[19] 0.00183942
3 *604:11 0.00226344
4 *604:5 0.0034517
5 *604:5 *637:19 0
6 *574:9 *604:11 0.000239636
7 *585:9 *604:11 0.000236301
*RES
1 wbs_dat_i[19] *604:5 62.7539 
2 *604:5 *604:11 17.7733 
3 *604:11 *664:wbs_dat_i[19] 40.0407 
*END

*D_NET *605 0.0523288
*CONN
*P wbs_dat_i[1] I
*I *664:wbs_dat_i[1] I *D signal_generator
*CAP
1 wbs_dat_i[1] 0.00377044
2 *664:wbs_dat_i[1] 0.00103006
3 *605:9 0.0101804
4 *605:7 0.00915029
5 *605:5 0.00377044
6 *605:9 *625:11 0.000198876
7 *605:9 *629:13 0.00289342
8 *605:9 *663:9 0
9 *664:wbs_adr_i[3] *605:9 0.000573379
10 *560:13 *605:9 0.00541617
11 *563:15 *605:9 0.0069648
12 *570:11 *605:9 0
13 *571:11 *605:9 0.00838056
14 *593:17 *605:9 0
*RES
1 wbs_dat_i[1] *605:5 81.0654 
2 *605:5 *605:7 8 
3 *605:7 *605:9 46.0805 
4 *605:9 *664:wbs_dat_i[1] 29.7293 
*END

*D_NET *606 0.0100084
*CONN
*P wbs_dat_i[20] I
*I *664:wbs_dat_i[20] I *D signal_generator
*CAP
1 wbs_dat_i[20] 0.00185513
2 *664:wbs_dat_i[20] 7.90936e-05
3 *606:11 0.00314909
4 *606:9 0.00492513
5 *573:7 *606:9 0
*RES
1 wbs_dat_i[20] *606:9 38.2075 
2 *606:9 *606:11 66.3479 
3 *606:11 *664:wbs_dat_i[20] 1.86429 
*END

*D_NET *607 0.0119689
*CONN
*P wbs_dat_i[21] I
*I *664:wbs_dat_i[21] I *D signal_generator
*CAP
1 wbs_dat_i[21] 0.00194026
2 *664:wbs_dat_i[21] 7.96822e-05
3 *607:13 0.00292663
4 *607:11 0.00352066
5 *607:7 0.00261397
6 *607:7 *609:13 0
7 *607:7 *610:13 0.000222243
8 *607:11 *632:13 0.00026229
9 *578:9 *607:11 0.000403151
*RES
1 wbs_dat_i[21] *607:7 48.9211 
2 *607:7 *607:11 10.8896 
3 *607:11 *607:13 60.0093 
4 *607:13 *664:wbs_dat_i[21] 1.86429 
*END

*D_NET *608 0.0148633
*CONN
*P wbs_dat_i[22] I
*I *664:wbs_dat_i[22] I *D signal_generator
*CAP
1 wbs_dat_i[22] 0.00216522
2 *664:wbs_dat_i[22] 7.90936e-05
3 *608:13 0.00347936
4 *608:11 0.00556549
5 *608:11 *633:13 0.000768093
6 *608:11 *652:19 0
7 *574:5 *608:13 0
8 *576:11 *608:11 0.00280606
*RES
1 wbs_dat_i[22] *608:11 48.7476 
2 *608:11 *608:13 73.3907 
3 *608:13 *664:wbs_dat_i[22] 1.86429 
*END

*D_NET *609 0.0152168
*CONN
*P wbs_dat_i[23] I
*I *664:wbs_dat_i[23] I *D signal_generator
*CAP
1 wbs_dat_i[23] 0.00176541
2 *664:wbs_dat_i[23] 7.90936e-05
3 *609:13 0.00288552
4 *609:11 0.00465579
5 *609:7 0.00361477
6 *609:11 *610:9 0.000732522
7 *609:11 *630:13 0.000846658
8 *574:5 *609:13 0.000637004
9 *607:7 *609:13 0
*RES
1 wbs_dat_i[23] *609:7 42.5825 
2 *609:7 *609:11 15.5264 
3 *609:11 *609:13 66.3479 
4 *609:13 *664:wbs_dat_i[23] 1.86429 
*END

*D_NET *610 0.0187929
*CONN
*P wbs_dat_i[24] I
*I *664:wbs_dat_i[24] I *D signal_generator
*CAP
1 wbs_dat_i[24] 0.00360122
2 *664:wbs_dat_i[24] 7.90936e-05
3 *610:13 0.00318224
4 *610:11 0.00310314
5 *610:9 0.00360122
6 *610:9 *613:11 0.00348506
7 *610:9 *630:13 0
8 *610:9 *633:13 0.000786119
9 *610:9 *637:9 0
10 *610:9 *648:9 0
11 *610:9 *656:19 0
12 *607:7 *610:13 0.000222243
13 *609:11 *610:9 0.000732522
*RES
1 wbs_dat_i[24] *610:9 49.5243 
2 *610:9 *610:11 8 
3 *610:11 *610:13 69.165 
4 *610:13 *664:wbs_dat_i[24] 1.86429 
*END

*D_NET *611 0.0212746
*CONN
*P wbs_dat_i[25] I
*I *664:wbs_dat_i[25] I *D signal_generator
*CAP
1 wbs_dat_i[25] 0.00342495
2 *664:wbs_dat_i[25] 7.96822e-05
3 *611:13 0.00385837
4 *611:11 0.00377869
5 *611:9 0.00342495
6 *611:9 *635:21 0.000175994
7 *611:9 *652:9 0
8 *611:9 *652:21 0
9 *611:9 *656:21 0
10 *584:9 *611:9 0.00653197
*RES
1 wbs_dat_i[25] *611:9 42.687 
2 *611:9 *611:11 8 
3 *611:11 *611:13 78.3207 
4 *611:13 *664:wbs_dat_i[25] 1.86429 
*END

*D_NET *612 0.0233527
*CONN
*P wbs_dat_i[26] I
*I *664:wbs_dat_i[26] I *D signal_generator
*CAP
1 wbs_dat_i[26] 0.00230584
2 *664:wbs_dat_i[26] 0.00199368
3 *612:11 0.00468114
4 *612:5 0.00499331
5 *612:5 *656:9 0.00160418
6 *612:11 *628:15 0.00777459
7 *585:9 *612:11 0
*RES
1 wbs_dat_i[26] *612:5 59.2325 
2 *612:5 *612:11 30.3099 
3 *612:11 *664:wbs_dat_i[26] 43.5621 
*END

*D_NET *613 0.0270375
*CONN
*P wbs_dat_i[27] I
*I *664:wbs_dat_i[27] I *D signal_generator
*CAP
1 wbs_dat_i[27] 0.00153849
2 *664:wbs_dat_i[27] 7.90936e-05
3 *613:13 0.00331893
4 *613:11 0.00578976
5 *613:7 0.00408841
6 *613:11 *633:13 0.00873772
7 *610:9 *613:11 0.00348506
*RES
1 wbs_dat_i[27] *613:7 39.0611 
2 *613:7 *613:11 24.6283 
3 *613:11 *613:13 69.8693 
4 *613:13 *664:wbs_dat_i[27] 1.86429 
*END

*D_NET *614 0.0262527
*CONN
*P wbs_dat_i[28] I
*I *664:wbs_dat_i[28] I *D signal_generator
*CAP
1 wbs_dat_i[28] 0.00358583
2 *664:wbs_dat_i[28] 0.00102881
3 *614:11 0.00485904
4 *614:5 0.00741606
5 *614:5 *631:11 0.000387725
6 *614:5 *632:9 0
7 *614:11 *615:11 0
8 *614:11 *629:13 0.0089752
9 *614:11 *663:9 0
*RES
1 wbs_dat_i[28] *614:5 81.0654 
2 *614:5 *614:11 34.8608 
3 *614:11 *664:wbs_dat_i[28] 21.7293 
*END

*D_NET *615 0.0264724
*CONN
*P wbs_dat_i[29] I
*I *664:wbs_dat_i[29] I *D signal_generator
*CAP
1 wbs_dat_i[29] 0.00339392
2 *664:wbs_dat_i[29] 0.00133513
3 *615:11 0.00630185
4 *615:5 0.00836065
5 *615:5 *634:9 0
6 *615:5 *635:9 0
7 *615:5 *640:19 0
8 *615:11 *627:13 0.00708082
9 *615:11 *629:13 0
10 *614:11 *615:11 0
*RES
1 wbs_dat_i[29] *615:5 74.0225 
2 *615:5 *615:11 37.1792 
3 *615:11 *664:wbs_dat_i[29] 28.7721 
*END

*D_NET *616 0.0501876
*CONN
*P wbs_dat_i[2] I
*I *664:wbs_dat_i[2] I *D signal_generator
*CAP
1 wbs_dat_i[2] 0.00264682
2 *664:wbs_dat_i[2] 7.90936e-05
3 *616:13 0.00209931
4 *616:9 0.00985598
5 *616:7 0.00783576
6 *616:5 0.00264682
7 *616:9 *619:9 0
8 *616:9 *628:15 0.00521149
9 *616:13 wbs_dat_o[14] 0
10 *125:9 *616:5 0
11 *126:11 *616:5 0.000251547
12 *561:11 *616:9 0
13 *562:11 *616:9 0.00578251
14 *567:11 *616:9 0.00110757
15 *568:11 *616:9 0
16 *574:9 *616:9 0.00781333
17 *587:11 *616:9 0.000292372
18 *592:11 *616:9 0.00456503
19 *594:17 *616:9 0
20 *599:5 *616:13 0
*RES
1 wbs_dat_i[2] *616:5 59.2325 
2 *616:5 *616:7 8 
3 *616:7 *616:9 42.7317 
4 *616:9 *616:13 49.6979 
5 *616:13 *664:wbs_dat_i[2] 1.86429 
*END

*D_NET *617 0.0295128
*CONN
*P wbs_dat_i[30] I
*I *664:wbs_dat_i[30] I *D signal_generator
*CAP
1 wbs_dat_i[30] 0.00206048
2 *664:wbs_dat_i[30] 7.90936e-05
3 *617:13 0.00267989
4 *617:11 0.00780318
5 *617:5 0.00726287
6 *617:5 *638:9 0
7 *617:5 *639:9 0
8 *617:5 *641:17 8.83425e-05
9 *617:11 *618:11 0
10 *617:11 *626:13 0
11 *617:11 *632:13 0.00953899
12 *617:11 *647:15 0
13 *579:9 *617:11 0
*RES
1 wbs_dat_i[30] *617:5 45.1468 
2 *617:5 *617:11 39.4117 
3 *617:11 *617:13 55.7836 
4 *617:13 *664:wbs_dat_i[30] 1.86429 
*END

*D_NET *618 0.0289212
*CONN
*P wbs_dat_i[31] I
*I *664:wbs_dat_i[31] I *D signal_generator
*CAP
1 wbs_dat_i[31] 0.00142718
2 *664:wbs_dat_i[31] 7.90936e-05
3 *618:13 0.00298024
4 *618:11 0.00941064
5 *618:7 0.00793667
6 *618:7 *642:9 0.00165584
7 *618:11 *630:13 0.00284941
8 *618:11 *632:13 0
9 *578:9 *618:11 0.00258209
10 *617:11 *618:11 0
*RES
1 wbs_dat_i[31] *618:7 46.8082 
2 *618:7 *618:11 33.7301 
3 *618:11 *618:13 62.1221 
4 *618:13 *664:wbs_dat_i[31] 1.86429 
*END

*D_NET *619 0.0470392
*CONN
*P wbs_dat_i[3] I
*I *664:wbs_dat_i[3] I *D signal_generator
*CAP
1 wbs_dat_i[3] 0.0023649
2 *664:wbs_dat_i[3] 0.00240074
3 *619:11 0.00240074
4 *619:9 0.00691873
5 *619:5 0.00928362
6 *664:wbs_dat_i[3] wbs_dat_o[14] 0
7 *619:5 *658:13 0
8 *619:9 *626:13 0.00739962
9 *559:21 *619:5 3.08448e-05
10 *562:11 *619:9 0
11 *567:5 *664:wbs_dat_i[3] 0
12 *568:11 *619:9 0.010793
13 *579:9 *619:9 0.00544709
14 *616:9 *619:9 0
*RES
1 wbs_dat_i[3] *619:5 52.8939 
2 *619:5 *619:9 47.2971 
3 *619:9 *619:11 8 
4 *619:11 *664:wbs_dat_i[3] 49.9007 
*END

*D_NET *620 0.043418
*CONN
*P wbs_dat_i[4] I
*I *664:wbs_dat_i[4] I *D signal_generator
*CAP
1 wbs_dat_i[4] 0.00174557
2 *664:wbs_dat_i[4] 7.90936e-05
3 *620:13 0.00307621
4 *620:11 0.00953249
5 *620:7 0.00828095
6 *620:11 *622:11 0
7 *564:11 *620:11 0
8 *565:13 *620:11 0
9 *566:11 *620:11 0.0106854
10 *567:5 *620:13 0
11 *578:9 *620:11 0.00673112
12 *589:11 *620:11 0.000317711
13 *591:11 *620:11 0.00182167
14 *597:11 *620:11 0.00114777
15 *600:5 *620:13 0
*RES
1 wbs_dat_i[4] *620:7 46.8082 
2 *620:7 *620:11 43.9483 
3 *620:11 *620:13 62.1221 
4 *620:13 *664:wbs_dat_i[4] 1.86429 
*END

*D_NET *621 0.0464854
*CONN
*P wbs_dat_i[5] I
*I *664:wbs_dat_i[5] I *D signal_generator
*CAP
1 wbs_dat_i[5] 0.00337044
2 *664:wbs_dat_i[5] 0.00135314
3 *621:11 0.00644108
4 *621:5 0.00845838
5 *621:11 *627:13 0.00145759
6 *664:wbs_adr_i[5] *621:5 0
7 *563:15 *621:11 0
8 *570:11 *621:11 0.0107918
9 *589:13 *621:5 0
10 *593:17 *621:11 0.0143129
11 *600:11 *621:11 0.000300093
*RES
1 wbs_dat_i[5] *621:5 74.7268 
2 *621:5 *621:11 49.6299 
3 *621:11 *664:wbs_dat_i[5] 28.0679 
*END

*D_NET *622 0.0405647
*CONN
*P wbs_dat_i[6] I
*I *664:wbs_dat_i[6] I *D signal_generator
*CAP
1 wbs_dat_i[6] 0.00209856
2 *664:wbs_dat_i[6] 7.90936e-05
3 *622:13 0.00273022
4 *622:11 0.00800118
5 *622:5 0.00744861
6 *622:11 *626:13 0
7 *565:13 *622:11 0.00262947
8 *568:5 *622:13 0
9 *575:9 *622:11 0.00953543
10 *591:13 *622:5 0
11 *596:11 *622:11 0.00804214
12 *620:11 *622:11 0
*RES
1 wbs_dat_i[6] *622:5 45.8511 
2 *622:5 *622:11 47.3115 
3 *622:11 *622:13 55.0793 
4 *622:13 *664:wbs_dat_i[6] 1.86429 
*END

*D_NET *623 0.0346934
*CONN
*P wbs_dat_i[7] I
*I *664:wbs_dat_i[7] I *D signal_generator
*CAP
1 wbs_dat_i[7] 0.00143668
2 *664:wbs_dat_i[7] 7.90936e-05
3 *623:13 0.00346727
4 *623:11 0.00893657
5 *623:7 0.00698507
6 *564:11 *623:11 0.00123361
7 *568:5 *623:13 0
8 *573:11 *623:11 0.010808
9 *576:11 *623:11 0.00174711
10 *591:11 *623:11 0
11 *601:5 *623:13 0
*RES
1 wbs_dat_i[7] *623:7 38.3568 
2 *623:7 *623:11 37.0789 
3 *623:11 *623:13 70.5736 
4 *623:13 *664:wbs_dat_i[7] 1.86429 
*END

*D_NET *624 0.0430047
*CONN
*P wbs_dat_i[8] I
*I *664:wbs_dat_i[8] I *D signal_generator
*CAP
1 wbs_dat_i[8] 0.00308982
2 *664:wbs_dat_i[8] 0.00151944
3 *624:11 0.0042623
4 *624:5 0.00583269
5 *624:11 *631:13 0.00322053
6 *664:wbs_adr_i[15] *624:5 0.000498882
7 *569:11 *624:11 0.0133973
8 *585:9 *624:11 0.000698581
9 *593:17 *624:11 0
10 *594:17 *624:11 0.0100039
11 *601:5 *664:wbs_dat_i[8] 0.000481281
*RES
1 wbs_dat_i[8] *624:5 66.9796 
2 *624:5 *624:11 42.8464 
3 *624:11 *664:wbs_dat_i[8] 35.815 
*END

*D_NET *625 0.0325215
*CONN
*P wbs_dat_i[9] I
*I *664:wbs_dat_i[9] I *D signal_generator
*CAP
1 wbs_dat_i[9] 0.0039034
2 *664:wbs_dat_i[9] 0.000957004
3 *625:11 0.00573523
4 *625:5 0.00868162
5 *625:11 *663:9 0
6 *664:wbs_adr_i[18] *625:5 0.000159083
7 *664:wbs_adr_i[19] *625:5 0
8 *664:wbs_dat_i[16] *625:11 0
9 *571:11 *625:11 0.0128863
10 *605:9 *625:11 0.000198876
*RES
1 wbs_dat_i[9] *625:5 82.4739 
2 *625:5 *625:11 40.528 
3 *625:11 *664:wbs_dat_i[9] 20.3207 
*END

*D_NET *626 0.0795717
*CONN
*P wbs_dat_o[0] O
*I *664:wbs_dat_o[0] O *D signal_generator
*CAP
1 wbs_dat_o[0] 0.00100173
2 *664:wbs_dat_o[0] 7.90936e-05
3 *626:17 0.00255996
4 *626:13 0.0190476
5 *626:11 0.0174893
6 *626:9 0.0023118
7 *626:7 0.00239089
8 wbs_dat_o[0] *662:13 0.000197815
9 *626:13 *632:13 0
10 *72:17 wbs_dat_o[0] 0.000414728
11 *559:19 *626:13 0.00545699
12 *575:9 *626:13 0
13 *579:9 *626:13 0.0210427
14 *594:11 wbs_dat_o[0] 0.000163351
15 *594:13 wbs_dat_o[0] 1.61501e-05
16 *596:11 *626:13 0
17 *617:11 *626:13 0
18 *619:9 *626:13 0.00739962
19 *622:11 *626:13 0
*RES
1 *664:wbs_dat_o[0] *626:7 1.86429 
2 *626:7 *626:9 49.445 
3 *626:9 *626:11 8 
4 *626:11 *626:13 79.7403 
5 *626:13 *626:17 42.655 
6 *626:17 wbs_dat_o[0] 34.577 
*END

*D_NET *627 0.0540754
*CONN
*P wbs_dat_o[10] O
*I *664:wbs_dat_o[10] O *D signal_generator
*CAP
1 wbs_dat_o[10] 0.00349681
2 *664:wbs_dat_o[10] 0.00133983
3 *627:15 0.00349681
4 *627:13 0.012521
5 *627:11 0.0138609
6 *627:11 *628:11 0
7 *627:13 *629:13 0
8 *627:13 *631:13 0
9 *664:wbs_dat_i[18] *627:13 0
10 *569:11 *627:13 0
11 *575:13 wbs_dat_o[10] 0
12 *576:13 wbs_dat_o[10] 0
13 *593:17 *627:13 0.00513352
14 *600:11 *627:13 0.00568812
15 *615:11 *627:13 0.00708082
16 *621:11 *627:13 0.00145759
*RES
1 *664:wbs_dat_o[10] *627:11 37.4764 
2 *627:11 *627:13 54.152 
3 *627:13 *627:15 8 
4 *627:15 wbs_dat_o[10] 73.3182 
*END

*D_NET *628 0.0507737
*CONN
*P wbs_dat_o[11] O
*I *664:wbs_dat_o[11] O *D signal_generator
*CAP
1 wbs_dat_o[11] 0.0027683
2 *664:wbs_dat_o[11] 0.00205059
3 *628:17 0.0027683
4 *628:15 0.0109124
5 *628:13 0.0109124
6 *628:11 0.00205059
7 *628:15 *634:13 0
8 *568:11 *628:15 0
9 *574:9 *628:15 0.00617762
10 *578:13 wbs_dat_o[11] 0
11 *579:9 *628:15 0
12 *579:15 wbs_dat_o[11] 0.000147408
13 *585:9 *628:15 0
14 *612:11 *628:15 0.00777459
15 *616:9 *628:15 0.00521149
16 *627:11 *628:11 0
*RES
1 *664:wbs_dat_o[11] *628:11 45.3643 
2 *628:11 *628:13 8 
3 *628:13 *628:15 51.576 
4 *628:15 *628:17 8 
5 *628:17 wbs_dat_o[11] 58.5282 
*END

*D_NET *629 0.0540864
*CONN
*P wbs_dat_o[12] O
*I *664:wbs_dat_o[12] O *D signal_generator
*CAP
1 wbs_dat_o[12] 0.00301578
2 *664:wbs_dat_o[12] 0.00103789
3 *629:15 0.00301578
4 *629:13 0.0106043
5 *629:11 0.0116422
6 *629:13 *663:9 0
7 *664:wbs_dat_i[17] *629:13 0.000158043
8 *664:wbs_dat_i[18] *629:13 0.000558071
9 *565:7 wbs_dat_o[12] 0
10 *571:11 *629:13 0.00073474
11 *582:13 wbs_dat_o[12] 0.00431893
12 *598:11 *629:13 0
13 *599:15 *629:13 0.00713199
14 *605:9 *629:13 0.00289342
15 *614:11 *629:13 0.0089752
16 *615:11 *629:13 0
17 *627:13 *629:13 0
*RES
1 *664:wbs_dat_o[12] *629:11 30.4336 
2 *629:11 *629:13 49.6011 
3 *629:13 *629:15 8 
4 *629:15 wbs_dat_o[12] 80.3611 
*END

*D_NET *630 0.0515615
*CONN
*P wbs_dat_o[13] O
*I *664:wbs_dat_o[13] O *D signal_generator
*CAP
1 wbs_dat_o[13] 0.00182947
2 *664:wbs_dat_o[13] 7.90936e-05
3 *630:13 0.0108315
4 *630:11 0.00900206
5 *630:9 0.0028634
6 *630:7 0.0029425
7 *630:13 *633:13 0
8 *573:11 *630:13 0
9 *578:9 *630:13 0.0203174
10 *609:11 *630:13 0.000846658
11 *610:9 *630:13 0
12 *618:11 *630:13 0.00284941
*RES
1 *664:wbs_dat_o[13] *630:7 1.86429 
2 *630:7 *630:9 63.5307 
3 *630:9 *630:11 8 
4 *630:11 *630:13 47.2827 
5 *630:13 wbs_dat_o[13] 45.3996 
*END

*D_NET *631 0.0540763
*CONN
*P wbs_dat_o[14] O
*I *664:wbs_dat_o[14] O *D signal_generator
*CAP
1 wbs_dat_o[14] 0.00325434
2 *664:wbs_dat_o[14] 0.00146042
3 *631:15 0.00325434
4 *631:13 0.00804958
5 *631:11 0.00951
6 *664:wbs_dat_i[3] wbs_dat_o[14] 0
7 *569:11 *631:13 0.000565745
8 *585:9 *631:13 0.0243737
9 *614:5 *631:11 0.000387725
10 *616:13 wbs_dat_o[14] 0
11 *624:11 *631:13 0.00322053
12 *627:13 *631:13 0
*RES
1 *664:wbs_dat_o[14] *631:11 44.5193 
2 *631:11 *631:13 45.0501 
3 *631:13 *631:15 8 
4 *631:15 wbs_dat_o[14] 66.2754 
*END

*D_NET *632 0.0482981
*CONN
*P wbs_dat_o[15] O
*I *664:wbs_dat_o[15] O *D signal_generator
*CAP
1 wbs_dat_o[15] 0.00217202
2 *664:wbs_dat_o[15] 7.96822e-05
3 *632:15 0.00217202
4 *632:13 0.00878702
5 *632:11 0.00878702
6 *632:9 0.00256124
7 *632:7 0.00264092
8 *575:9 *632:13 0.0112969
9 *578:9 *632:13 0
10 *597:11 *632:13 0
11 *607:11 *632:13 0.00026229
12 *614:5 *632:9 0
13 *617:11 *632:13 0.00953899
14 *618:11 *632:13 0
15 *626:13 *632:13 0
*RES
1 *664:wbs_dat_o[15] *632:7 1.86429 
2 *632:7 *632:9 56.4879 
3 *632:9 *632:11 8 
4 *632:11 *632:13 42.7317 
5 *632:13 *632:15 8 
6 *632:15 wbs_dat_o[15] 44.4425 
*END

*D_NET *633 0.0439483
*CONN
*P wbs_dat_o[16] O
*I *664:wbs_dat_o[16] O *D signal_generator
*CAP
1 wbs_dat_o[16] 0.0014989
2 *664:wbs_dat_o[16] 7.90936e-05
3 *633:13 0.00999962
4 *633:9 0.0116231
5 *633:7 0.00320151
6 *573:11 *633:13 0.00576573
7 *576:11 *633:13 0.0014884
8 *577:9 *633:13 0
9 *580:9 *633:13 0
10 *581:9 *633:13 0
11 *582:9 *633:13 0
12 *608:11 *633:13 0.000768093
13 *610:9 *633:13 0.000786119
14 *613:11 *633:13 0.00873772
15 *630:13 *633:13 0
*RES
1 *664:wbs_dat_o[16] *633:7 1.86429 
2 *633:7 *633:9 70.5736 
3 *633:9 *633:13 48.4133 
4 *633:13 wbs_dat_o[16] 38.3568 
*END

*D_NET *634 0.0422634
*CONN
*P wbs_dat_o[17] O
*I *664:wbs_dat_o[17] O *D signal_generator
*CAP
1 wbs_dat_o[17] 0.00235121
2 *664:wbs_dat_o[17] 0.00219912
3 *634:15 0.00235121
4 *634:13 0.00886717
5 *634:9 0.0110663
6 *579:9 *634:13 0.0144366
7 *597:15 wbs_dat_o[17] 0.000991769
8 *615:5 *634:9 0
9 *628:15 *634:13 0
*RES
1 *664:wbs_dat_o[17] *634:9 49.9007 
2 *634:9 *634:13 46.1808 
3 *634:13 *634:15 8 
4 *634:15 wbs_dat_o[17] 52.8939 
*END

*D_NET *635 0.0548587
*CONN
*P wbs_dat_o[18] O
*I *664:wbs_dat_o[18] O *D signal_generator
*CAP
1 wbs_dat_o[18] 0.000748568
2 *664:wbs_dat_o[18] 7.90936e-05
3 *635:21 0.00386104
4 *635:13 0.00423554
5 *635:11 0.00112307
6 *635:9 0.00367107
7 *635:7 0.00375016
8 wbs_dat_o[18] *660:15 4.77164e-06
9 *635:9 wbs_dat_o[29] 0
10 *635:13 wbs_dat_o[27] 0.000478943
11 *635:13 *636:13 0.00453013
12 *635:13 *642:15 0.000359974
13 *635:13 *656:13 0.00182927
14 *635:13 *660:17 0.00715237
15 *635:13 *662:17 0.00019045
16 *635:21 wbs_dat_o[21] 2.70414e-05
17 *635:21 *641:23 0.00286966
18 *635:21 *642:15 0.000573013
19 *635:21 *652:9 0
20 *635:21 *654:21 0.00858353
21 *635:21 *656:21 0.0101505
22 *635:21 *662:17 0.00046453
23 *611:9 *635:21 0.000175994
24 *615:5 *635:9 0
*RES
1 *664:wbs_dat_o[18] *635:7 1.86429 
2 *635:7 *635:9 82.3704 
3 *635:9 *635:11 15 
4 *635:11 *635:13 76.85 
5 *635:13 *635:21 47.4718 
6 *635:21 wbs_dat_o[18] 24.2711 
*END

*D_NET *636 0.0484441
*CONN
*P wbs_dat_o[19] O
*I *664:wbs_dat_o[19] O *D signal_generator
*CAP
1 wbs_dat_o[19] 0.00358862
2 *664:wbs_dat_o[19] 7.90936e-05
3 *636:19 0.00385219
4 *636:13 0.00114199
5 *636:11 0.000878418
6 *636:9 0.00372613
7 *636:7 0.00380523
8 wbs_dat_o[19] wbs_dat_o[20] 0.00140634
9 wbs_dat_o[19] wbs_dat_o[21] 0.00899162
10 wbs_dat_o[19] wbs_dat_o[22] 0.00728672
11 wbs_dat_o[19] *637:19 0
12 wbs_dat_o[19] *648:21 0.00231317
13 wbs_dat_o[19] *654:21 0.00170403
14 *636:9 wbs_dat_o[29] 0
15 *636:13 *638:13 0.00368186
16 *636:13 *640:13 0.000361025
17 *636:13 *642:15 0.000520443
18 *636:13 *660:17 9.047e-05
19 *636:13 *662:17 0.000486668
20 *580:7 *636:19 0
21 *584:7 *636:9 0
22 *635:13 *636:13 0.00453013
*RES
1 *664:wbs_dat_o[19] *636:7 1.86429 
2 *636:7 *636:9 82.7225 
3 *636:9 *636:11 15 
4 *636:11 *636:13 54.4579 
5 *636:13 *636:19 27.1946 
6 *636:19 wbs_dat_o[19] 45.9993 
*END

*D_NET *637 0.0847567
*CONN
*P wbs_dat_o[1] O
*I *664:wbs_dat_o[1] O *D signal_generator
*CAP
1 wbs_dat_o[1] 0.000576676
2 *664:wbs_dat_o[1] 7.90936e-05
3 *637:21 0.0133653
4 *637:19 0.0131342
5 *637:13 0.00170591
6 *637:11 0.00136036
7 *637:9 0.00392061
8 *637:7 0.00399971
9 *637:13 *648:13 0.00551168
10 *637:13 *652:21 0.000951419
11 *637:13 *660:17 0.00809334
12 *637:13 *662:17 0.000626189
13 *637:21 *648:21 0.0303146
14 *637:21 *658:13 0.00111753
15 io_oeb[26] *637:21 0
16 wbs_dat_o[19] *637:19 0
17 *577:7 *637:9 0
18 *604:5 *637:19 0
19 *610:9 *637:9 0
*RES
1 *664:wbs_dat_o[1] *637:7 1.86429 
2 *637:7 *637:9 82.3704 
3 *637:9 *637:11 15 
4 *637:11 *637:13 86.855 
5 *637:13 *637:19 28.9554 
6 *637:19 *637:21 62.3093 
7 *637:21 wbs_dat_o[1] 20.7496 
*END

*D_NET *638 0.0383906
*CONN
*P wbs_dat_o[20] O
*I *664:wbs_dat_o[20] O *D signal_generator
*CAP
1 wbs_dat_o[20] 0.00542541
2 *664:wbs_dat_o[20] 7.90936e-05
3 *638:19 0.00565825
4 *638:13 0.00106721
5 *638:11 0.00083438
6 *638:9 0.00372389
7 *638:7 0.00380298
8 wbs_dat_o[20] wbs_dat_o[22] 0.00866798
9 wbs_dat_o[20] *648:21 0.000571452
10 *638:13 *640:13 0.000292345
11 *638:13 *642:15 0.000470669
12 *638:13 *662:17 0.00232868
13 *638:19 wbs_dat_o[27] 0.000380008
14 wbs_dat_o[19] wbs_dat_o[20] 0.00140634
15 *584:7 *638:9 0
16 *617:5 *638:9 0
17 *636:13 *638:13 0.00368186
*RES
1 *664:wbs_dat_o[20] *638:7 1.86429 
2 *638:7 *638:9 83.0746 
3 *638:9 *638:11 15 
4 *638:11 *638:13 45.4057 
5 *638:13 *638:19 28.2511 
6 *638:19 wbs_dat_o[20] 43.9038 
*END

*D_NET *639 0.0428496
*CONN
*P wbs_dat_o[21] O
*I *664:wbs_dat_o[21] O *D signal_generator
*CAP
1 wbs_dat_o[21] 0.00350721
2 *664:wbs_dat_o[21] 7.90936e-05
3 *639:19 0.00386108
4 *639:13 0.00136136
5 *639:9 0.00457796
6 *639:7 0.00364956
7 wbs_dat_o[21] wbs_dat_o[22] 0.00162839
8 wbs_dat_o[21] *641:23 0.00887017
9 wbs_dat_o[21] *654:21 0.00339806
10 *639:9 wbs_dat_o[30] 0
11 *639:13 wbs_dat_o[28] 0.000104089
12 *639:13 *658:17 0.002794
13 wbs_dat_o[19] wbs_dat_o[21] 0.00899162
14 *582:7 *639:19 0
15 *617:5 *639:9 0
16 *635:21 wbs_dat_o[21] 2.70414e-05
*RES
1 *664:wbs_dat_o[21] *639:7 1.86429 
2 *639:7 *639:9 81.3139 
3 *639:9 *639:13 45.16 
4 *639:13 *639:19 27.8989 
5 *639:19 wbs_dat_o[21] 46.446 
*END

*D_NET *640 0.0389078
*CONN
*P wbs_dat_o[22] O
*I *664:wbs_dat_o[22] O *D signal_generator
*CAP
1 wbs_dat_o[22] 0.00404004
2 *664:wbs_dat_o[22] 7.96822e-05
3 *640:19 0.00432379
4 *640:13 0.000673247
5 *640:9 0.00347209
6 *640:7 0.00316228
7 wbs_dat_o[22] *641:23 0.000400322
8 *640:9 wbs_dat_o[30] 0.00161916
9 *640:13 wbs_dat_o[27] 0.000120171
10 *640:13 *641:17 0.000631718
11 *640:13 *660:17 0.00194961
12 *640:13 *662:17 0.000102583
13 *640:19 wbs_dat_o[29] 9.66268e-05
14 wbs_dat_o[19] wbs_dat_o[22] 0.00728672
15 wbs_dat_o[20] wbs_dat_o[22] 0.00866798
16 wbs_dat_o[21] wbs_dat_o[22] 0.00162839
17 *585:5 *640:9 0
18 *615:5 *640:19 0
19 *636:13 *640:13 0.000361025
20 *638:13 *640:13 0.000292345
*RES
1 *664:wbs_dat_o[22] *640:7 1.86429 
2 *640:7 *640:9 82.3704 
3 *640:9 *640:13 36.1079 
4 *640:13 *640:19 28.2511 
5 *640:19 wbs_dat_o[22] 44.4363 
*END

*D_NET *641 0.0381175
*CONN
*P wbs_dat_o[23] O
*I *664:wbs_dat_o[23] O *D signal_generator
*CAP
1 wbs_dat_o[23] 0.000738035
2 *664:wbs_dat_o[23] 7.90936e-05
3 *641:23 0.0036199
4 *641:17 0.00330629
5 *641:9 0.00346051
6 *641:7 0.00311518
7 wbs_dat_o[23] *654:19 4.77164e-06
8 *641:17 *660:17 0.000291591
9 *641:17 *662:17 0.00041249
10 *641:23 *642:15 0.00017365
11 *641:23 *643:19 0.00813155
12 wbs_dat_o[21] *641:23 0.00887017
13 wbs_dat_o[22] *641:23 0.000400322
14 *585:5 *641:9 0.00192427
15 *617:5 *641:17 8.83425e-05
16 *635:21 *641:23 0.00286966
17 *640:13 *641:17 0.000631718
*RES
1 *664:wbs_dat_o[23] *641:7 1.86429 
2 *641:7 *641:9 82.7225 
3 *641:9 *641:17 45.3182 
4 *641:17 *641:23 38.2096 
5 *641:23 wbs_dat_o[23] 15.5668 
*END

*D_NET *642 0.0396526
*CONN
*P wbs_dat_o[24] O
*I *664:wbs_dat_o[24] O *D signal_generator
*CAP
1 wbs_dat_o[24] 0.000869726
2 *664:wbs_dat_o[24] 7.90936e-05
3 *642:15 0.00600065
4 *642:9 0.00848516
5 *642:7 0.00343333
6 wbs_dat_o[24] *656:19 0
7 *642:15 wbs_dat_o[27] 0.00637234
8 *642:15 *643:19 0.000847645
9 *642:15 *644:15 0.00810596
10 *642:15 *656:13 0.000312285
11 *642:15 *658:17 0.000137587
12 *642:15 *660:17 0.000318439
13 *642:15 *662:17 0.000936835
14 *584:9 *642:15 0
15 *618:7 *642:9 0.00165584
16 *635:13 *642:15 0.000359974
17 *635:21 *642:15 0.000573013
18 *636:13 *642:15 0.000520443
19 *638:13 *642:15 0.000470669
20 *641:23 *642:15 0.00017365
*RES
1 *664:wbs_dat_o[24] *642:7 1.86429 
2 *642:7 *642:9 83.2507 
3 *642:9 *642:15 38.2096 
4 *642:15 wbs_dat_o[24] 17.6796 
*END

*D_NET *643 0.0338016
*CONN
*P wbs_dat_o[25] O
*I *664:wbs_dat_o[25] O *D signal_generator
*CAP
1 wbs_dat_o[25] 0.000776384
2 *664:wbs_dat_o[25] 0.000891969
3 *643:19 0.00355897
4 *643:13 0.00548646
5 *643:11 0.00359584
6 *643:13 wbs_dat_o[31] 0.00190765
7 *643:19 *644:15 0.0086051
8 *641:23 *643:19 0.00813155
9 *642:15 *643:19 0.000847645
*RES
1 *664:wbs_dat_o[25] *643:11 19.3471 
2 *643:11 *643:13 67.9429 
3 *643:13 *643:19 35.8053 
4 *643:19 wbs_dat_o[25] 16.2711 
*END

*D_NET *644 0.0349623
*CONN
*P wbs_dat_o[26] O
*I *664:wbs_dat_o[26] O *D signal_generator
*CAP
1 wbs_dat_o[26] 0.000820502
2 *664:wbs_dat_o[26] 7.90936e-05
3 *644:15 0.00363142
4 *644:9 0.0065429
5 *644:7 0.00381107
6 *644:15 wbs_dat_o[27] 0.000518776
7 *644:15 *662:17 0.00284751
8 *642:15 *644:15 0.00810596
9 *643:19 *644:15 0.0086051
*RES
1 *664:wbs_dat_o[26] *644:7 1.86429 
2 *644:7 *644:9 83.955 
3 *644:9 *644:15 33.6587 
4 *644:15 wbs_dat_o[26] 16.9754 
*END

*D_NET *645 0.030048
*CONN
*P wbs_dat_o[27] O
*I *664:wbs_dat_o[27] O *D signal_generator
*CAP
1 wbs_dat_o[27] 0.0039676
2 *664:wbs_dat_o[27] 7.90936e-05
3 *645:9 0.00761878
4 *645:7 0.00373027
5 wbs_dat_o[27] wbs_dat_o[28] 0.00626304
6 wbs_dat_o[27] *660:17 0.000518934
7 *584:9 wbs_dat_o[27] 0
8 *635:13 wbs_dat_o[27] 0.000478943
9 *638:19 wbs_dat_o[27] 0.000380008
10 *640:13 wbs_dat_o[27] 0.000120171
11 *642:15 wbs_dat_o[27] 0.00637234
12 *644:15 wbs_dat_o[27] 0.000518776
*RES
1 *664:wbs_dat_o[27] *645:7 1.86429 
2 *645:7 *645:9 82.5464 
3 *645:9 wbs_dat_o[27] 49.7242 
*END

*D_NET *646 0.0234545
*CONN
*P wbs_dat_o[28] O
*I *664:wbs_dat_o[28] O *D signal_generator
*CAP
1 wbs_dat_o[28] 0.00447847
2 *664:wbs_dat_o[28] 7.90936e-05
3 *646:9 0.0080799
4 *646:7 0.00368052
5 wbs_dat_o[28] *658:17 0.000650915
6 wbs_dat_o[28] *660:17 0.000118451
7 wbs_dat_o[27] wbs_dat_o[28] 0.00626304
8 *584:9 wbs_dat_o[28] 0
9 *639:13 wbs_dat_o[28] 0.000104089
*RES
1 *664:wbs_dat_o[28] *646:7 1.86429 
2 *646:7 *646:9 81.8421 
3 *646:9 wbs_dat_o[28] 48.1959 
*END

*D_NET *647 0.0165129
*CONN
*P wbs_dat_o[29] O
*I *664:wbs_dat_o[29] O *D signal_generator
*CAP
1 wbs_dat_o[29] 0.00239374
2 *664:wbs_dat_o[29] 7.96822e-05
3 *647:15 0.00589247
4 *647:9 0.00573473
5 *647:7 0.00231568
6 *647:9 *649:13 0
7 *617:11 *647:15 0
8 *635:9 wbs_dat_o[29] 0
9 *636:9 wbs_dat_o[29] 0
10 *640:19 wbs_dat_o[29] 9.66268e-05
*RES
1 *664:wbs_dat_o[29] *647:7 1.86429 
2 *647:7 *647:9 49.445 
3 *647:9 *647:15 26.7893 
4 *647:15 wbs_dat_o[29] 51.4854 
*END

*D_NET *648 0.0864323
*CONN
*P wbs_dat_o[2] O
*I *664:wbs_dat_o[2] O *D signal_generator
*CAP
1 wbs_dat_o[2] 0.000607543
2 *664:wbs_dat_o[2] 7.90936e-05
3 *648:21 0.0105305
4 *648:19 0.0101388
5 *648:13 0.00119431
6 *648:11 0.00097844
7 *648:9 0.00392014
8 *648:7 0.00399923
9 *648:9 *656:19 1.0092e-05
10 *648:13 *651:13 0.0049808
11 *648:13 *652:21 0.000262117
12 *648:13 *656:21 0.000101624
13 *648:13 *660:17 0.000292345
14 *648:13 *662:17 0.000375664
15 *648:21 *654:21 0.0064459
16 *648:21 *658:13 0.00202059
17 *648:21 *660:9 0.0010204
18 wbs_dat_o[19] *648:21 0.00231317
19 wbs_dat_o[20] *648:21 0.000571452
20 *572:11 *648:21 0.000408808
21 *574:5 *648:19 0.000354862
22 *610:9 *648:9 0
23 *637:13 *648:13 0.00551168
24 *637:21 *648:21 0.0303146
*RES
1 *664:wbs_dat_o[2] *648:7 1.86429 
2 *648:7 *648:9 82.7225 
3 *648:9 *648:11 15 
4 *648:11 *648:13 64.9393 
5 *648:13 *648:19 27.8989 
6 *648:19 *648:21 62.9104 
7 *648:21 wbs_dat_o[2] 21.4539 
*END

*D_NET *649 0.0177621
*CONN
*P wbs_dat_o[30] O
*I *664:wbs_dat_o[30] O *D signal_generator
*CAP
1 wbs_dat_o[30] 0.00341993
2 *664:wbs_dat_o[30] 0.00245897
3 *649:13 0.0058789
4 *649:13 *661:9 0.0043851
5 *639:9 wbs_dat_o[30] 0
6 *640:9 wbs_dat_o[30] 0.00161916
7 *647:9 *649:13 0
*RES
1 *664:wbs_dat_o[30] *649:13 38.7755 
2 *649:13 wbs_dat_o[30] 89.5168 
*END

*D_NET *650 0.0142661
*CONN
*P wbs_dat_o[31] O
*I *664:wbs_dat_o[31] O *D signal_generator
*CAP
1 wbs_dat_o[31] 0.00149979
2 *664:wbs_dat_o[31] 7.90936e-05
3 *650:15 0.00348521
4 *650:9 0.00460036
5 *650:7 0.00269403
6 *643:13 wbs_dat_o[31] 0.00190765
*RES
1 *664:wbs_dat_o[31] *650:7 1.86429 
2 *650:7 *650:9 60.0093 
3 *650:9 *650:15 22.2384 
4 *650:15 wbs_dat_o[31] 40.9211 
*END

*D_NET *651 0.0956282
*CONN
*P wbs_dat_o[3] O
*I *664:wbs_dat_o[3] O *D signal_generator
*CAP
1 wbs_dat_o[3] 0.000840813
2 *664:wbs_dat_o[3] 7.90936e-05
3 *651:21 0.00881502
4 *651:19 0.00800014
5 *651:13 0.000899255
6 *651:11 0.000873322
7 *651:9 0.00394753
8 *651:7 0.00402662
9 wbs_dat_o[3] *658:13 0
10 *651:13 *652:13 0.00382406
11 *651:13 *652:21 0.000225529
12 *651:13 *656:13 0.000496345
13 *651:13 *656:21 0.000114879
14 *651:13 *660:17 9.8592e-06
15 *651:13 *662:17 0.000939091
16 *651:21 *652:21 0.0293621
17 *651:21 *656:21 0.0224246
18 *651:21 *660:9 0.00451143
19 *651:21 *662:17 0.00125776
20 *578:7 *651:9 0
21 *648:13 *651:13 0.0049808
*RES
1 *664:wbs_dat_o[3] *651:7 1.86429 
2 *651:7 *651:9 83.0746 
3 *651:9 *651:11 15 
4 *651:11 *651:13 59.2221 
5 *651:13 *651:19 23.3211 
6 *651:19 *651:21 60.5061 
7 *651:21 wbs_dat_o[3] 25.6796 
*END

*D_NET *652 0.0825903
*CONN
*P wbs_dat_o[4] O
*I *664:wbs_dat_o[4] O *D signal_generator
*CAP
1 wbs_dat_o[4] 0.00086109
2 *664:wbs_dat_o[4] 7.90936e-05
3 *652:21 0.0145621
4 *652:19 0.0137778
5 *652:13 0.000743932
6 *652:11 0.000667227
7 *652:9 0.00396063
8 *652:7 0.00403972
9 *652:7 *653:9 0
10 *652:9 *653:9 0
11 *652:13 *656:13 0.000292345
12 *652:13 *656:21 0.000451057
13 *652:13 *662:17 0.00435879
14 *652:21 *656:21 0.000839457
15 *652:21 *660:17 0.000997584
16 *652:21 *662:17 0.000264232
17 *578:7 *652:9 0
18 *581:9 *652:21 0
19 *584:9 *652:21 0
20 *590:11 *652:21 0.00207002
21 *608:11 *652:19 0
22 *611:9 *652:9 0
23 *611:9 *652:21 0
24 *635:21 *652:9 0
25 *637:13 *652:21 0.000951419
26 *648:13 *652:21 0.000262117
27 *651:13 *652:13 0.00382406
28 *651:13 *652:21 0.000225529
29 *651:21 *652:21 0.0293621
*RES
1 *664:wbs_dat_o[4] *652:7 1.86429 
2 *652:7 *652:9 83.4268 
3 *652:9 *652:11 15 
4 *652:11 *652:13 46.835 
5 *652:13 *652:19 24.0254 
6 *652:19 *652:21 59.3899 
7 *652:21 wbs_dat_o[4] 26.3839 
*END

*D_NET *653 0.0895406
*CONN
*P wbs_dat_o[5] O
*I *664:wbs_dat_o[5] O *D signal_generator
*CAP
1 wbs_dat_o[5] 0.00408521
2 *664:wbs_dat_o[5] 0.000653719
3 *653:13 0.00408521
4 *653:11 0.00659069
5 *653:9 0.00724441
6 *653:11 *655:11 0.0316332
7 *653:11 *661:9 0.0352481
8 *589:13 wbs_dat_o[5] 0
9 *590:13 wbs_dat_o[5] 0
10 *652:7 *653:9 0
11 *652:9 *653:9 0
*RES
1 *664:wbs_dat_o[5] *653:9 22.5621 
2 *653:9 *653:11 65.1429 
3 *653:11 *653:13 8 
4 *653:13 wbs_dat_o[5] 89.5168 
*END

*D_NET *654 0.0738646
*CONN
*P wbs_dat_o[6] O
*I *664:wbs_dat_o[6] O *D signal_generator
*CAP
1 wbs_dat_o[6] 0.000708012
2 *664:wbs_dat_o[6] 7.90936e-05
3 *654:21 0.00922718
4 *654:19 0.00881066
5 *654:13 0.00156395
6 *654:11 0.00127245
7 *654:9 0.00379475
8 *654:7 0.00387384
9 *654:7 *655:9 0
10 *654:9 *655:9 0
11 *654:13 *658:17 0.00364327
12 *654:21 *656:21 2.97703e-05
13 *654:21 *660:9 0.0207253
14 wbs_dat_o[19] *654:21 0.00170403
15 wbs_dat_o[21] *654:21 0.00339806
16 wbs_dat_o[23] *654:19 4.77164e-06
17 *579:5 *654:9 0
18 *635:21 *654:21 0.00858353
19 *648:21 *654:21 0.0064459
*RES
1 *664:wbs_dat_o[6] *654:7 1.86429 
2 *654:7 *654:9 81.3139 
3 *654:9 *654:11 15 
4 *654:11 *654:13 39.2121 
5 *654:13 *654:19 27.1946 
6 *654:19 *654:21 56.2128 
7 *654:21 wbs_dat_o[6] 23.5668 
*END

*D_NET *655 0.0857838
*CONN
*P wbs_dat_o[7] O
*I *664:wbs_dat_o[7] O *D signal_generator
*CAP
1 wbs_dat_o[7] 0.00347525
2 *664:wbs_dat_o[7] 0.000611509
3 *655:13 0.00347525
4 *655:11 0.00677111
5 *655:9 0.00738262
6 *655:11 *657:11 0.0282663
7 *655:11 *661:9 0.00061678
8 *565:15 wbs_dat_o[7] 0.00355164
9 *653:11 *655:11 0.0316332
10 *654:7 *655:9 0
11 *654:9 *655:9 0
*RES
1 *664:wbs_dat_o[7] *655:9 21.8579 
2 *655:9 *655:11 60.592 
3 *655:11 *655:13 8 
4 *655:13 wbs_dat_o[7] 90.2211 
*END

*D_NET *656 0.0888759
*CONN
*P wbs_dat_o[8] O
*I *664:wbs_dat_o[8] O *D signal_generator
*CAP
1 wbs_dat_o[8] 0.000794339
2 *664:wbs_dat_o[8] 7.90936e-05
3 *656:21 0.00854387
4 *656:19 0.00784983
5 *656:13 0.000781392
6 *656:9 0.00400266
7 *656:7 0.00340066
8 *656:7 *657:9 0
9 *656:9 *657:9 0
10 *656:13 *660:17 0.000731493
11 *656:13 *662:17 0.000758928
12 *656:21 *660:9 0.0172821
13 *656:21 *662:17 0.00599515
14 wbs_dat_o[24] *656:19 0
15 *610:9 *656:19 0
16 *611:9 *656:21 0
17 *612:5 *656:9 0.00160418
18 *635:13 *656:13 0.00182927
19 *635:21 *656:21 0.0101505
20 *642:15 *656:13 0.000312285
21 *648:9 *656:19 1.0092e-05
22 *648:13 *656:21 0.000101624
23 *651:13 *656:13 0.000496345
24 *651:13 *656:21 0.000114879
25 *651:21 *656:21 0.0224246
26 *652:13 *656:13 0.000292345
27 *652:13 *656:21 0.000451057
28 *652:21 *656:21 0.000839457
29 *654:21 *656:21 2.97703e-05
*RES
1 *664:wbs_dat_o[8] *656:7 1.86429 
2 *656:7 *656:9 82.7225 
3 *656:9 *656:13 48.9714 
4 *656:13 *656:19 24.3775 
5 *656:19 *656:21 52.6064 
6 *656:21 wbs_dat_o[8] 24.9754 
*END

*D_NET *657 0.0608791
*CONN
*P wbs_dat_o[9] O
*I *664:wbs_dat_o[9] O *D signal_generator
*CAP
1 wbs_dat_o[9] 0.00434876
2 *664:wbs_dat_o[9] 0.000569299
3 *657:13 0.00434876
4 *657:11 0.0111787
5 *657:9 0.011748
6 *657:11 *661:9 0.000419297
7 *664:wbs_adr_i[19] wbs_dat_o[9] 0
8 *573:13 wbs_dat_o[9] 0
9 *655:11 *657:11 0.0282663
10 *656:7 *657:9 0
11 *656:9 *657:9 0
*RES
1 *664:wbs_dat_o[9] *657:9 21.1536 
2 *657:9 *657:11 56.0411 
3 *657:11 *657:13 8 
4 *657:13 wbs_dat_o[9] 90.9254 
*END

*D_NET *658 0.0960195
*CONN
*P wbs_sel_i[0] I
*I *664:wbs_sel_i[0] I *D signal_generator
*CAP
1 wbs_sel_i[0] 0.00265133
2 *664:wbs_sel_i[0] 7.96822e-05
3 *658:21 0.00373104
4 *658:19 0.00365136
5 *658:17 0.0206856
6 *658:15 0.0206856
7 *658:13 0.00265133
8 *658:13 *662:13 0.00496853
9 *658:17 *660:17 0.026042
10 *658:17 *662:17 0
11 *658:21 *664:wbs_sel_i[1] 0
12 io_oeb[26] *658:13 0
13 wbs_dat_o[28] *658:17 0.000650915
14 wbs_dat_o[3] *658:13 0
15 *572:11 *658:13 0.000509161
16 *619:5 *658:13 0
17 *637:21 *658:13 0.00111753
18 *639:13 *658:17 0.002794
19 *642:15 *658:17 0.000137587
20 *648:21 *658:13 0.00202059
21 *654:13 *658:17 0.00364327
*RES
1 wbs_sel_i[0] *658:13 46.8856 
2 *658:13 *658:15 15 
3 *658:15 *658:17 564.236 
4 *658:17 *658:19 15 
5 *658:19 *658:21 81.6661 
6 *658:21 *664:wbs_sel_i[0] 1.86429 
*END

*D_NET *659 0.146471
*CONN
*P wbs_sel_i[1] I
*I *664:wbs_sel_i[1] I *D signal_generator
*CAP
1 wbs_sel_i[1] 0.00403055
2 *664:wbs_sel_i[1] 0.000712117
3 *659:9 0.0113589
4 *659:7 0.0106468
5 *659:5 0.00403055
6 *659:9 *661:9 0.0543986
7 *659:9 *663:9 0.0591001
8 *664:wbs_adr_i[2] *659:9 0.00219335
9 *658:21 *664:wbs_sel_i[1] 0
*RES
1 wbs_sel_i[1] *659:5 88.1082 
2 *659:5 *659:7 8 
3 *659:7 *659:9 109.45 
4 *659:9 *664:wbs_sel_i[1] 23.9707 
*END

*D_NET *660 0.127984
*CONN
*P wbs_sel_i[2] I
*I *664:wbs_sel_i[2] I *D signal_generator
*CAP
1 wbs_sel_i[2] 0.000776384
2 *664:wbs_sel_i[2] 7.90936e-05
3 *660:21 0.00362862
4 *660:19 0.00354953
5 *660:17 0.00525475
6 *660:15 0.00543225
7 *660:9 0.00750793
8 *660:7 0.00810682
9 *664:wbs_sel_i[2] *664:wbs_sel_i[3] 0
10 *660:17 *662:17 0.000644695
11 *660:21 *664:wbs_sel_i[3] 0
12 wbs_dat_o[18] *660:15 4.77164e-06
13 wbs_dat_o[27] *660:17 0.000518934
14 wbs_dat_o[28] *660:17 0.000118451
15 *572:11 *660:9 0.00285332
16 *635:13 *660:17 0.00715237
17 *636:13 *660:17 9.047e-05
18 *637:13 *660:17 0.00809334
19 *640:13 *660:17 0.00194961
20 *641:17 *660:17 0.000291591
21 *642:15 *660:17 0.000318439
22 *648:13 *660:17 0.000292345
23 *648:21 *660:9 0.0010204
24 *651:13 *660:17 9.8592e-06
25 *651:21 *660:9 0.00451143
26 *652:21 *660:17 0.000997584
27 *654:21 *660:9 0.0207253
28 *656:13 *660:17 0.000731493
29 *656:21 *660:9 0.0172821
30 *658:17 *660:17 0.026042
*RES
1 wbs_sel_i[2] *660:7 24.2711 
2 *660:7 *660:9 53.9803 
3 *660:9 *660:15 25.7861 
4 *660:15 *660:17 291.243 
5 *660:17 *660:19 15 
6 *660:19 *660:21 82.0182 
7 *660:21 *664:wbs_sel_i[2] 1.86429 
*END

*D_NET *661 0.131402
*CONN
*P wbs_sel_i[3] I
*I *664:wbs_sel_i[3] I *D signal_generator
*CAP
1 wbs_sel_i[3] 0.00364635
2 *664:wbs_sel_i[3] 0.000658422
3 *661:9 0.0128202
4 *661:7 0.0121618
5 *661:5 0.00364635
6 *661:9 *663:9 0.00061678
7 *664:wbs_adr_i[0] *661:5 0.00181428
8 *664:wbs_adr_i[2] *661:9 0.000969767
9 *664:wbs_sel_i[2] *664:wbs_sel_i[3] 0
10 *649:13 *661:9 0.0043851
11 *653:11 *661:9 0.0352481
12 *655:11 *661:9 0.00061678
13 *657:11 *661:9 0.000419297
14 *659:9 *661:9 0.0543986
15 *660:21 *664:wbs_sel_i[3] 0
*RES
1 wbs_sel_i[3] *661:5 88.8125 
2 *661:5 *661:7 8 
3 *661:7 *661:9 102.753 
4 *661:9 *664:wbs_sel_i[3] 23.2664 
*END

*D_NET *662 0.0978715
*CONN
*P wbs_stb_i I
*I *664:wbs_stb_i I *D signal_generator
*CAP
1 wbs_stb_i 0.00358162
2 *664:wbs_stb_i 7.90936e-05
3 *662:21 0.00369012
4 *662:19 0.00361102
5 *662:17 0.0251123
6 *662:15 0.0251123
7 *662:13 0.00358162
8 *664:wbs_stb_i *664:wbs_we_i 0
9 *662:21 *664:wbs_we_i 0
10 wbs_dat_o[0] *662:13 0.000197815
11 *72:17 *662:13 0.000171202
12 *572:11 *662:13 0.00442229
13 *586:5 *662:13 0
14 *594:11 *662:13 0.000353417
15 *635:13 *662:17 0.00019045
16 *635:21 *662:17 0.00046453
17 *636:13 *662:17 0.000486668
18 *637:13 *662:17 0.000626189
19 *638:13 *662:17 0.00232868
20 *640:13 *662:17 0.000102583
21 *641:17 *662:17 0.00041249
22 *642:15 *662:17 0.000936835
23 *644:15 *662:17 0.00284751
24 *648:13 *662:17 0.000375664
25 *651:13 *662:17 0.000939091
26 *651:21 *662:17 0.00125776
27 *652:13 *662:17 0.00435879
28 *652:21 *662:17 0.000264232
29 *656:13 *662:17 0.000758928
30 *656:21 *662:17 0.00599515
31 *658:13 *662:13 0.00496853
32 *658:17 *662:17 0
33 *660:17 *662:17 0.000644695
*RES
1 wbs_stb_i *662:13 48.3791 
2 *662:13 *662:15 15 
3 *662:15 *662:17 598.063 
4 *662:17 *662:19 15 
5 *662:19 *662:21 83.7789 
6 *662:21 *664:wbs_stb_i 1.86429 
*END

*D_NET *663 0.123326
*CONN
*P wbs_we_i I
*I *664:wbs_we_i I *D signal_generator
*CAP
1 wbs_we_i 0.00391334
2 *664:wbs_we_i 0.000720123
3 *663:9 0.0252429
4 *663:7 0.0245228
5 *663:5 0.00391334
6 *664:wbs_adr_i[3] *663:9 0.000877913
7 *664:wbs_dat_i[16] *663:9 0.00441886
8 *664:wbs_dat_i[17] *663:9 0
9 *664:wbs_stb_i *664:wbs_we_i 0
10 *560:13 *663:9 0
11 *605:9 *663:9 0
12 *614:11 *663:9 0
13 *625:11 *663:9 0
14 *629:13 *663:9 0
15 *659:9 *663:9 0.0591001
16 *661:9 *663:9 0.00061678
17 *662:21 *664:wbs_we_i 0
*RES
1 wbs_we_i *663:5 87.4039 
2 *663:5 *663:7 8 
3 *663:7 *663:9 122.416 
4 *663:9 *664:wbs_we_i 24.675 
*END
